LAMMPS (30 Nov 2020)
OMP_NUM_THREADS environment is not set. Defaulting to 1 thread. (src/lammps-master/src/comm.cpp:94)
  using 1 OpenMP thread(s) per MPI task
# Compute elastic constant tensor for a crystal
#
# Written by Aidan Thompson (Sandia, athomps@sandia.gov)
#
#  This script uses the following three include files.
#
#   init.mod      (must be modified for different crystal structures)
# 	       	  Define units, deformation parameters and initial
#		  configuration of the atoms and simulation cell.
#
#
#   potential.mod    (must be modified for different pair styles)
# 		     Define pair style and other attributes
#		     not stored in restart file
#
#
#   displace.mod    (displace.mod should not need to be modified)
# 		    Perform positive and negative box displacements
# 		    in direction ${dir} and size ${up}.
# 		    It uses the resultant changes
#		    in stress to compute one
# 		    row of the elastic stiffness tensor
#
#		    Inputs variables:
#		    	   dir = the Voigt deformation component
#		    		    (1,2,3,4,5,6)
#		    Global constants:
#       	    	   up = the deformation magnitude (strain units)
#       		   cfac = conversion from LAMMPS pressure units to
#               	   output units for elastic constants
#
#
#  To run this on a different system, it should only be necessary to
#  modify the files init.mod and potential.mod. In order to calculate
#  the elastic constants correctly, care must be taken to specify
#  the correct units in init.mod (units, cfac and cunits). It is also
#  important to verify that the minimization of energy w.r.t atom
#  positions in the deformed cell is fully converged.
#  One indication of this is that the elastic constants are insensitive
#  to the choice of the variable ${up} in init.mod. Another is to check
#  the final max and two-norm forces reported in the log file. If you know
#  that minimization is not required, you can set maxiter = 0.0 in
#  init.mod.
#

include init.mod

# real units, elastic constants in GPa
variable up equal 1.0e-2
variable atomjiggle equal 1.0e-5
units		real
variable cfac equal 1.01325e-4
variable cunits string GPa
atom_style      full

# Define minimization parameters
variable etol equal 1.0e-10
variable ftol equal 1.0e-10
variable maxiter equal 100000
variable maxeval equal 10000000
variable dmax equal 1.0e-3
bond_style      harmonic
angle_style     hybrid cosine/periodic fourier
dihedral_style  harmonic
improper_style  fourier
box tilt large
 read_data       data.MOF
Reading data file ...
  triclinic box = (0.0000000 0.0000000 0.0000000) to (37.895777 39.469369 30.158718) with tilt (0.0020710000 0.0037010000 -1.2416140)
  2 by 2 by 2 MPI processor grid
  reading atoms ...
  3712 atoms
  scanning bonds ...
  4 = max bonds/atom
  scanning angles ...
  6 = max angles/atom
  scanning dihedrals ...
  21 = max dihedrals/atom
  scanning impropers ...
  2 = max impropers/atom
  reading bonds ...
  4096 bonds
  reading angles ...
  7808 angles
  reading dihedrals ...
  9856 dihedrals
  reading impropers ...
  3072 impropers
Finding 1-2 1-3 1-4 neighbors ...
  special bond factors lj:    0        0        0       
  special bond factors coul:  0        0        0       
     4 = max # of 1-2 neighbors
     8 = max # of 1-3 neighbors
    21 = max # of 1-4 neighbors
    25 = max # of special neighbors
  special bonds CPU = 0.003 seconds
  read_data CPU = 0.041 seconds
change_box all triclinic
Changing box ...
  triclinic box = (0.0000000 0.0000000 0.0000000) to (37.895777 39.469369 30.158718) with tilt (0.0020710000 0.0037010000 -1.2416140)
include potential.mod
pair_style      lj/cut 12.5
bond_style      harmonic
angle_style     hybrid cosine/periodic fourier
dihedral_style  harmonic
improper_style  fourier


special_bonds   lj 0.0 0.0 1.0
Finding 1-2 1-3 1-4 neighbors ...
  special bond factors lj:    0        0        1       
  special bond factors coul:  0        0        0       
     4 = max # of 1-2 neighbors
     8 = max # of 1-3 neighbors
    21 = max # of 1-4 neighbors
    25 = max # of special neighbors
  special bonds CPU = 0.001 seconds
pair_modify     tail yes mix arithmetic
include data.pair
bond_coeff     1      154.048673        1.928536  # Zn3f2 N_R
bond_coeff     2      122.127512        2.014866  # Zn3f2 O_2
bond_coeff     3      153.811316        1.929528  # Zn3f2 N_3
bond_coeff     4      527.945261        1.044419  # H_ N_3
bond_coeff     5      357.440381        1.081418  # H_ C_R
bond_coeff     6      331.069389        1.109401  # H_ C_3
bond_coeff     7      529.459447        1.043423  # H_ N_R
bond_coeff     8      663.718927        1.345073  # C_R N_R
bond_coeff     9      462.655054        1.379256  # C_R C_R
bond_coeff    10      369.943935        1.486000  # C_R C_3
bond_coeff    11      714.557442        1.269010  # C_R O_2
bond_coeff    12      646.680887        1.311940  # C_R O_R
bond_coeff    13      349.795899        1.514000  # C_3 C_3
bond_coeff    14      529.724731        1.450075  # C_3 N_R
bond_coeff    15      528.634538        1.451071  # C_3 N_3
angle_coeff     1                      fourier      183.483089        0.343737        0.374972        0.281246 # N_R Zn3f2 N_R
angle_coeff     2                      fourier      155.087435        0.343737        0.374972        0.281246 # N_R Zn3f2 O_2
angle_coeff     3                      fourier      183.341639        0.343737        0.374972        0.281246 # N_R Zn3f2 N_3
angle_coeff     4                      fourier      154.973760        0.343737        0.374972        0.281246 # O_2 Zn3f2 N_3
angle_coeff     5              cosine/periodic      159.573934              -1               3 # H_ C_R N_R
angle_coeff     6              cosine/periodic      424.885146              -1               3 # N_R C_R N_R
angle_coeff     7              cosine/periodic      114.578032              -1               3 # H_ C_R C_R
angle_coeff     8              cosine/periodic      307.398705              -1               3 # C_R C_R N_R
angle_coeff     9              cosine/periodic      198.274298              -1               3 # C_R C_R C_3
angle_coeff    10              cosine/periodic      273.097456              -1               3 # C_3 C_R N_R
angle_coeff    11              cosine/periodic      393.120049              -1               3 # O_2 C_R O_R
angle_coeff    12              cosine/periodic      266.629989              -1               3 # O_2 C_R C_3
angle_coeff    13              cosine/periodic      255.317313              -1               3 # O_R C_R C_3
angle_coeff    14                      fourier      117.318683        0.343737        0.374972        0.281246 # H_ C_3 C_3
angle_coeff    15                      fourier      170.007371        0.343737        0.374972        0.281246 # H_ C_3 N_R
angle_coeff    16                      fourier      121.777217        0.343737        0.374972        0.281246 # H_ C_3 C_R
angle_coeff    17                      fourier      303.594562        0.343737        0.374972        0.281246 # C_3 C_3 N_R
angle_coeff    18                      fourier      220.229931        0.343737        0.374972        0.281246 # C_3 C_3 C_R
angle_coeff    19                      fourier      312.548166        0.343737        0.374972        0.281246 # N_R C_3 C_R
angle_coeff    20                      fourier       75.498766        0.343737        0.374972        0.281246 # H_ C_3 H_
angle_coeff    21                      fourier      169.780468        0.343737        0.374972        0.281246 # H_ C_3 N_3
angle_coeff    22                      fourier      303.297032        0.343737        0.374972        0.281246 # C_3 C_3 N_3
angle_coeff    23              cosine/periodic      398.603153              -1               3 # N_R C_R O_R
angle_coeff    24                      fourier       51.536168        0.317506        0.313225        0.272502 # Zn3f2 N_3 H_
angle_coeff    25                      fourier      108.360206        0.317506        0.313225        0.272502 # Zn3f2 N_3 C_3
angle_coeff    26                      fourier       97.017167        0.317506        0.313225        0.272502 # H_ N_3 H_
angle_coeff    27                      fourier      144.695053        0.317506        0.313225        0.272502 # H_ N_3 C_3
angle_coeff    28              cosine/periodic       87.429320              -1               3 # Zn3f2 N_R C_R
angle_coeff    29              cosine/periodic      240.001032              -1               3 # C_R N_R C_R
angle_coeff    30              cosine/periodic      108.417222              -1               3 # H_ N_R C_3
angle_coeff    31              cosine/periodic      125.071223              -1               3 # H_ N_R C_R
angle_coeff    32              cosine/periodic      213.564697              -1               3 # C_3 N_R C_R
angle_coeff    33              cosine/periodic       84.412329              -1               3 # Zn3f2 O_2 C_R
dihedral_coeff     1        1.497136              -1               2 # H_ C_R N_R Zn3f2
dihedral_coeff     2        0.083333               1               3 # C_R C_R C_3 C_3
dihedral_coeff     3        2.245703              -1               2 # O_R C_R O_2 Zn3f2
dihedral_coeff     4        0.066219               1               3 # H_ C_3 C_3 C_R
dihedral_coeff     5        0.416667              -1               2 # H_ C_3 N_R H_
dihedral_coeff     6        0.030516               1               3 # H_ C_3 N_3 Zn3f2
improper_coeff     1        2.000000        1.000000       -1.000000        0.000000               0 # H_ C_R N_R N_R
pair_coeff 1 1 0.124 2.461553
pair_coeff 1 2 0.07386474125047755 2.5163434999999996
pair_coeff 1 3 0.11410521460476729 2.946202
pair_coeff 1 4 0.11410521460476729 2.946202
pair_coeff 1 5 0.09249864863877742 2.861121
pair_coeff 1 6 0.09249864863877742 2.861121
pair_coeff 1 7 0.08625543461139129 2.7898495
pair_coeff 1 8 0.08625543461139129 2.7898495
pair_coeff 2 2 0.044 2.571134
pair_coeff 2 3 0.0679705818718657 3.0009924999999997
pair_coeff 2 4 0.0679705818718657 3.0009924999999997
pair_coeff 2 5 0.05509990925582364 2.9159115
pair_coeff 2 6 0.05509990925582364 2.9159115
pair_coeff 2 7 0.05138093031466051 2.84464
pair_coeff 2 8 0.05138093031466051 2.84464
pair_coeff 3 3 0.105 3.430851
pair_coeff 3 4 0.105 3.430851
pair_coeff 3 5 0.08511756575466665 3.34577
pair_coeff 3 6 0.08511756575466665 3.34577
pair_coeff 3 7 0.07937253933193772 3.2744985
pair_coeff 3 8 0.07937253933193772 3.2744985
pair_coeff 4 4 0.105 3.430851
pair_coeff 4 5 0.08511756575466665 3.34577
pair_coeff 4 6 0.08511756575466665 3.34577
pair_coeff 4 7 0.07937253933193772 3.2744985
pair_coeff 4 8 0.07937253933193772 3.2744985
pair_coeff 5 5 0.069 3.2606889999999997
pair_coeff 5 6 0.069 3.2606889999999997
pair_coeff 5 7 0.06434283176858166 3.1894175
pair_coeff 5 8 0.06434283176858166 3.1894175
pair_coeff 6 6 0.069 3.2606889999999997
pair_coeff 6 7 0.06434283176858166 3.1894175
pair_coeff 6 8 0.06434283176858166 3.1894175
pair_coeff 7 7 0.06 3.118146
pair_coeff 7 8 0.06 3.118146
pair_coeff 8 8 0.06 3.118146

# Setup neighbor style
neighbor 1.0 nsq
neigh_modify once no every 1 delay 0 check yes

# Setup minimization style
min_style	     cg
min_modify	     dmax ${dmax} line quadratic
min_modify	     dmax 0.001 line quadratic

# Setup output
thermo		1
thermo_style custom step temp pe press pxx pyy pzz pxy pxz pyz lx ly lz vol
thermo_modify norm no

# Compute initial state
fix 3 all box/relax  aniso 0.0
minimize ${etol} ${ftol} ${maxiter} ${maxeval}
minimize 1e-10 ${ftol} ${maxiter} ${maxeval}
minimize 1e-10 1e-10 ${maxiter} ${maxeval}
minimize 1e-10 1e-10 100000 ${maxeval}
minimize 1e-10 1e-10 100000 10000000
Neighbor list info ...
  update every 1 steps, delay 0 steps, check yes
  max neighbors/atom: 2000, page size: 100000
  master list distance cutoff = 13.5
  ghost atom cutoff = 13.5
  1 neighbor lists, perpetual/occasional/extra = 1 0 0
  (1) pair lj/cut, perpetual
      attributes: half, newton on
      pair build: half/nsq/newton
      stencil: none
      bin: none
WARNING: Inconsistent image flags (src/lammps-master/src/domain.cpp:812)
Per MPI rank memory allocation (min/avg/max) = 18.81 | 19.00 | 19.19 Mbytes
Step Temp PotEng Press Pxx Pyy Pzz Pxy Pxz Pyz Lx Ly Lz Volume 
       0            0    10292.151   -153.72591   -43.846719   -367.53835   -49.792662  0.096632917   -5.5386312   -3.2549921    37.895777    39.469369    30.158718     45109.07 
       1            0    10292.132   -23.220486    47.551534   -142.43169    25.218697    0.1109451   -5.5497569    4.0374929    37.895325    39.465422    30.158309     45103.41 
       2            0     10292.13    2.2506987    13.534359    3.0718631   -9.8541256   0.11874593   -5.5512137    13.588722    37.896279    39.462444    30.158712    45101.745 
       3            0     10292.13  -0.33689463    -2.827563  -0.25175751    2.0686366   0.12081883   -5.5540337    12.453585    37.896521    39.462461    30.158584     45101.86 
       4            0    10292.127   -58.517045   -52.091028   -41.937209   -81.522898   0.44219481   -7.8791564    21.856319    37.897124    39.461996    30.159351    45103.192 
       5            0    10292.124  -0.41758378    2.4959522   -5.0687244    1.3200208   0.53705555    -8.544649     20.39914    37.896603    39.461281    30.158706    45100.792 
       6            0    10292.124   0.86654312   -1.6979248    5.8982406   -1.6006865    0.5354856   -8.5505216     21.17235    37.896699    39.461043    30.158738    45100.682 
       7            0    10292.124   -7.6044189   -52.520125   -9.5873677    39.294236    0.3724615   -8.5367539    18.669286    37.897437    39.461008     30.15833     45100.91 
       8            0    10292.121   -3.6400101   -3.1522841   -2.9962629   -4.7714833  -0.70188521    -8.463725    33.152249    37.896698    39.459696    30.158979    45099.502 
       9            0    10292.121    2.6177141    2.6828316    1.4766458    3.6936648  -0.70366558   -8.4608791    32.871811    37.896639    39.459637    30.158912    45099.264 
Loop time of 0.172601 on 8 procs for 9 steps with 3712 atoms

94.4% CPU use with 8 MPI tasks x 1 OpenMP threads

Minimization stats:
  Stopping criterion = energy tolerance
  Energy initial, next-to-last, final = 
      10292.1505727199   10292.1206165975   10292.1206163107
  Force two-norm initial, final = 245.72151 4.8126546
  Force max component initial, final = 241.79228 2.4294056
  Final line search alpha, max atom move = 3.2602438e-05 7.9204547e-05
  Iterations, force evaluations = 9 17

MPI task timing breakdown:
Section |  min time  |  avg time  |  max time  |%varavg| %total
---------------------------------------------------------------
Pair    | 0.059424   | 0.085358   | 0.11315    |   6.2 | 49.45
Bond    | 0.0038476  | 0.0039766  | 0.0041008  |   0.1 |  2.30
Neigh   | 0          | 0          | 0          |   0.0 |  0.00
Comm    | 0.027488   | 0.055389   | 0.081277   |   7.7 | 32.09
Output  | 0.00028086 | 0.00037825 | 0.00098467 |   0.0 |  0.22
Modify  | 0          | 0          | 0          |   0.0 |  0.00
Other   |            | 0.0275     |            |       | 15.93

Nlocal:        464.000 ave         464 max         464 min
Histogram: 8 0 0 0 0 0 0 0 0 0
Nghost:        7143.50 ave        7145 max        7142 min
Histogram: 4 0 0 0 0 0 0 0 0 4
Neighs:        195651.0 ave      248100 max      143194 min
Histogram: 1 1 1 1 0 0 1 1 1 1

Total # of neighbors = 1565209
Ave neighs/atom = 421.66191
Ave special neighs/atom = 13.034483
Neighbor list builds = 0
Dangerous builds = 0

variable tmp equal pxx
variable pxx0 equal ${tmp}
variable pxx0 equal 2.68283157923556
variable tmp equal pyy
variable pyy0 equal ${tmp}
variable pyy0 equal 1.47664583226622
variable tmp equal pzz
variable pzz0 equal ${tmp}
variable pzz0 equal 3.69366484528297
variable tmp equal pyz
variable pyz0 equal ${tmp}
variable pyz0 equal 32.8718105796933
variable tmp equal pxz
variable pxz0 equal ${tmp}
variable pxz0 equal -8.46087913498178
variable tmp equal pxy
variable pxy0 equal ${tmp}
variable pxy0 equal -0.703665583393466

variable tmp equal lx
variable lx0 equal ${tmp}
variable lx0 equal 37.8966394303209
variable tmp equal ly
variable ly0 equal ${tmp}
variable ly0 equal 39.4596368713245
variable tmp equal lz
variable lz0 equal ${tmp}
variable lz0 equal 30.1589120660827

# These formulas define the derivatives w.r.t. strain components
# Constants uses $, variables use v_
variable d1 equal -(v_pxx1-${pxx0})/(v_delta/v_len0)*${cfac}
variable d1 equal -(v_pxx1-2.68283157923556)/(v_delta/v_len0)*${cfac}
variable d1 equal -(v_pxx1-2.68283157923556)/(v_delta/v_len0)*0.000101325
variable d2 equal -(v_pyy1-${pyy0})/(v_delta/v_len0)*${cfac}
variable d2 equal -(v_pyy1-1.47664583226622)/(v_delta/v_len0)*${cfac}
variable d2 equal -(v_pyy1-1.47664583226622)/(v_delta/v_len0)*0.000101325
variable d3 equal -(v_pzz1-${pzz0})/(v_delta/v_len0)*${cfac}
variable d3 equal -(v_pzz1-3.69366484528297)/(v_delta/v_len0)*${cfac}
variable d3 equal -(v_pzz1-3.69366484528297)/(v_delta/v_len0)*0.000101325
variable d4 equal -(v_pyz1-${pyz0})/(v_delta/v_len0)*${cfac}
variable d4 equal -(v_pyz1-32.8718105796933)/(v_delta/v_len0)*${cfac}
variable d4 equal -(v_pyz1-32.8718105796933)/(v_delta/v_len0)*0.000101325
variable d5 equal -(v_pxz1-${pxz0})/(v_delta/v_len0)*${cfac}
variable d5 equal -(v_pxz1--8.46087913498178)/(v_delta/v_len0)*${cfac}
variable d5 equal -(v_pxz1--8.46087913498178)/(v_delta/v_len0)*0.000101325
variable d6 equal -(v_pxy1-${pxy0})/(v_delta/v_len0)*${cfac}
variable d6 equal -(v_pxy1--0.703665583393466)/(v_delta/v_len0)*${cfac}
variable d6 equal -(v_pxy1--0.703665583393466)/(v_delta/v_len0)*0.000101325

displace_atoms all random ${atomjiggle} ${atomjiggle} ${atomjiggle} 87287 units box
displace_atoms all random 1e-05 ${atomjiggle} ${atomjiggle} 87287 units box
displace_atoms all random 1e-05 1e-05 ${atomjiggle} 87287 units box
displace_atoms all random 1e-05 1e-05 1e-05 87287 units box
Displacing atoms ...

# Write restart
unfix 3
write_restart restart.equil
System init for write_restart ...

# uxx Perturbation

variable dir equal 1
include displace.mod
# NOTE: This script should not need to be
# modified. See in.elastic for more info.
#
# Find which reference length to use

if "${dir} == 1" then    "variable len0 equal ${lx0}"
variable len0 equal ${lx0}
variable len0 equal 37.8966394303209
if "${dir} == 2" then    "variable len0 equal ${ly0}"
if "${dir} == 3" then    "variable len0 equal ${lz0}"
if "${dir} == 4" then    "variable len0 equal ${lz0}"
if "${dir} == 5" then    "variable len0 equal ${lz0}"
if "${dir} == 6" then    "variable len0 equal ${ly0}"

# Reset box and simulation parameters

clear
OMP_NUM_THREADS environment is not set. Defaulting to 1 thread. (src/lammps-master/src/comm.cpp:94)
  using 1 OpenMP thread(s) per MPI task
box tilt large
read_restart restart.equil
Reading restart file ...
  restart file = 30 Nov 2020, LAMMPS = 30 Nov 2020
  restoring atom style full from restart
  triclinic box = (-0.00043121516 0.0048660643 -9.7033041e-05) to (37.896208 39.464503 30.158815) with tilt (0.0020704893 0.0037010238 -1.2416220)
  2 by 2 by 2 MPI processor grid
  restoring pair style lj/cut from restart
  restoring bond style harmonic from restart
  restoring angle style hybrid from restart
  restoring dihedral style harmonic from restart
  restoring improper style fourier from restart
  3712 atoms
  4096 bonds
  7808 angles
  9856 dihedrals
  3072 impropers
Finding 1-2 1-3 1-4 neighbors ...
  special bond factors lj:    0        0        1       
  special bond factors coul:  0        0        0       
     4 = max # of 1-2 neighbors
     8 = max # of 1-3 neighbors
    21 = max # of 1-4 neighbors
    25 = max # of special neighbors
  special bonds CPU = 0.001 seconds
  read_restart CPU = 0.006 seconds
include potential.mod
pair_style      lj/cut 12.5
bond_style      harmonic
angle_style     hybrid cosine/periodic fourier
dihedral_style  harmonic
improper_style  fourier


special_bonds   lj 0.0 0.0 1.0
pair_modify     tail yes mix arithmetic
include data.pair
bond_coeff     1      154.048673        1.928536  # Zn3f2 N_R
bond_coeff     2      122.127512        2.014866  # Zn3f2 O_2
bond_coeff     3      153.811316        1.929528  # Zn3f2 N_3
bond_coeff     4      527.945261        1.044419  # H_ N_3
bond_coeff     5      357.440381        1.081418  # H_ C_R
bond_coeff     6      331.069389        1.109401  # H_ C_3
bond_coeff     7      529.459447        1.043423  # H_ N_R
bond_coeff     8      663.718927        1.345073  # C_R N_R
bond_coeff     9      462.655054        1.379256  # C_R C_R
bond_coeff    10      369.943935        1.486000  # C_R C_3
bond_coeff    11      714.557442        1.269010  # C_R O_2
bond_coeff    12      646.680887        1.311940  # C_R O_R
bond_coeff    13      349.795899        1.514000  # C_3 C_3
bond_coeff    14      529.724731        1.450075  # C_3 N_R
bond_coeff    15      528.634538        1.451071  # C_3 N_3
angle_coeff     1                      fourier      183.483089        0.343737        0.374972        0.281246 # N_R Zn3f2 N_R
angle_coeff     2                      fourier      155.087435        0.343737        0.374972        0.281246 # N_R Zn3f2 O_2
angle_coeff     3                      fourier      183.341639        0.343737        0.374972        0.281246 # N_R Zn3f2 N_3
angle_coeff     4                      fourier      154.973760        0.343737        0.374972        0.281246 # O_2 Zn3f2 N_3
angle_coeff     5              cosine/periodic      159.573934              -1               3 # H_ C_R N_R
angle_coeff     6              cosine/periodic      424.885146              -1               3 # N_R C_R N_R
angle_coeff     7              cosine/periodic      114.578032              -1               3 # H_ C_R C_R
angle_coeff     8              cosine/periodic      307.398705              -1               3 # C_R C_R N_R
angle_coeff     9              cosine/periodic      198.274298              -1               3 # C_R C_R C_3
angle_coeff    10              cosine/periodic      273.097456              -1               3 # C_3 C_R N_R
angle_coeff    11              cosine/periodic      393.120049              -1               3 # O_2 C_R O_R
angle_coeff    12              cosine/periodic      266.629989              -1               3 # O_2 C_R C_3
angle_coeff    13              cosine/periodic      255.317313              -1               3 # O_R C_R C_3
angle_coeff    14                      fourier      117.318683        0.343737        0.374972        0.281246 # H_ C_3 C_3
angle_coeff    15                      fourier      170.007371        0.343737        0.374972        0.281246 # H_ C_3 N_R
angle_coeff    16                      fourier      121.777217        0.343737        0.374972        0.281246 # H_ C_3 C_R
angle_coeff    17                      fourier      303.594562        0.343737        0.374972        0.281246 # C_3 C_3 N_R
angle_coeff    18                      fourier      220.229931        0.343737        0.374972        0.281246 # C_3 C_3 C_R
angle_coeff    19                      fourier      312.548166        0.343737        0.374972        0.281246 # N_R C_3 C_R
angle_coeff    20                      fourier       75.498766        0.343737        0.374972        0.281246 # H_ C_3 H_
angle_coeff    21                      fourier      169.780468        0.343737        0.374972        0.281246 # H_ C_3 N_3
angle_coeff    22                      fourier      303.297032        0.343737        0.374972        0.281246 # C_3 C_3 N_3
angle_coeff    23              cosine/periodic      398.603153              -1               3 # N_R C_R O_R
angle_coeff    24                      fourier       51.536168        0.317506        0.313225        0.272502 # Zn3f2 N_3 H_
angle_coeff    25                      fourier      108.360206        0.317506        0.313225        0.272502 # Zn3f2 N_3 C_3
angle_coeff    26                      fourier       97.017167        0.317506        0.313225        0.272502 # H_ N_3 H_
angle_coeff    27                      fourier      144.695053        0.317506        0.313225        0.272502 # H_ N_3 C_3
angle_coeff    28              cosine/periodic       87.429320              -1               3 # Zn3f2 N_R C_R
angle_coeff    29              cosine/periodic      240.001032              -1               3 # C_R N_R C_R
angle_coeff    30              cosine/periodic      108.417222              -1               3 # H_ N_R C_3
angle_coeff    31              cosine/periodic      125.071223              -1               3 # H_ N_R C_R
angle_coeff    32              cosine/periodic      213.564697              -1               3 # C_3 N_R C_R
angle_coeff    33              cosine/periodic       84.412329              -1               3 # Zn3f2 O_2 C_R
dihedral_coeff     1        1.497136              -1               2 # H_ C_R N_R Zn3f2
dihedral_coeff     2        0.083333               1               3 # C_R C_R C_3 C_3
dihedral_coeff     3        2.245703              -1               2 # O_R C_R O_2 Zn3f2
dihedral_coeff     4        0.066219               1               3 # H_ C_3 C_3 C_R
dihedral_coeff     5        0.416667              -1               2 # H_ C_3 N_R H_
dihedral_coeff     6        0.030516               1               3 # H_ C_3 N_3 Zn3f2
improper_coeff     1        2.000000        1.000000       -1.000000        0.000000               0 # H_ C_R N_R N_R
pair_coeff 1 1 0.124 2.461553
pair_coeff 1 2 0.07386474125047755 2.5163434999999996
pair_coeff 1 3 0.11410521460476729 2.946202
pair_coeff 1 4 0.11410521460476729 2.946202
pair_coeff 1 5 0.09249864863877742 2.861121
pair_coeff 1 6 0.09249864863877742 2.861121
pair_coeff 1 7 0.08625543461139129 2.7898495
pair_coeff 1 8 0.08625543461139129 2.7898495
pair_coeff 2 2 0.044 2.571134
pair_coeff 2 3 0.0679705818718657 3.0009924999999997
pair_coeff 2 4 0.0679705818718657 3.0009924999999997
pair_coeff 2 5 0.05509990925582364 2.9159115
pair_coeff 2 6 0.05509990925582364 2.9159115
pair_coeff 2 7 0.05138093031466051 2.84464
pair_coeff 2 8 0.05138093031466051 2.84464
pair_coeff 3 3 0.105 3.430851
pair_coeff 3 4 0.105 3.430851
pair_coeff 3 5 0.08511756575466665 3.34577
pair_coeff 3 6 0.08511756575466665 3.34577
pair_coeff 3 7 0.07937253933193772 3.2744985
pair_coeff 3 8 0.07937253933193772 3.2744985
pair_coeff 4 4 0.105 3.430851
pair_coeff 4 5 0.08511756575466665 3.34577
pair_coeff 4 6 0.08511756575466665 3.34577
pair_coeff 4 7 0.07937253933193772 3.2744985
pair_coeff 4 8 0.07937253933193772 3.2744985
pair_coeff 5 5 0.069 3.2606889999999997
pair_coeff 5 6 0.069 3.2606889999999997
pair_coeff 5 7 0.06434283176858166 3.1894175
pair_coeff 5 8 0.06434283176858166 3.1894175
pair_coeff 6 6 0.069 3.2606889999999997
pair_coeff 6 7 0.06434283176858166 3.1894175
pair_coeff 6 8 0.06434283176858166 3.1894175
pair_coeff 7 7 0.06 3.118146
pair_coeff 7 8 0.06 3.118146
pair_coeff 8 8 0.06 3.118146

# Setup neighbor style
neighbor 1.0 nsq
neigh_modify once no every 1 delay 0 check yes

# Setup minimization style
min_style	     cg
min_modify	     dmax ${dmax} line quadratic
min_modify	     dmax 0.001 line quadratic

# Setup output
thermo		1
thermo_style custom step temp pe press pxx pyy pzz pxy pxz pyz lx ly lz vol
thermo_modify norm no

# Negative deformation

variable delta equal -${up}*${len0}
variable delta equal -0.01*${len0}
variable delta equal -0.01*37.8966394303209
variable deltaxy equal -${up}*xy
variable deltaxy equal -0.01*xy
variable deltaxz equal -${up}*xz
variable deltaxz equal -0.01*xz
variable deltayz equal -${up}*yz
variable deltayz equal -0.01*yz
if "${dir} == 1" then    "change_box all x delta 0 ${delta} xy delta ${deltaxy} xz delta ${deltaxz} remap units box"
change_box all x delta 0 ${delta} xy delta ${deltaxy} xz delta ${deltaxz} remap units box
change_box all x delta 0 -0.378966394303209 xy delta ${deltaxy} xz delta ${deltaxz} remap units box
change_box all x delta 0 -0.378966394303209 xy delta -2.07048934480085e-05 xz delta ${deltaxz} remap units box
change_box all x delta 0 -0.378966394303209 xy delta -2.07048934480085e-05 xz delta -3.70102381528857e-05 remap units box
Changing box ...
  triclinic box = (-0.00043121516 0.0048660643 -9.7033041e-05) to (37.517242 39.464503 30.158815) with tilt (0.0020704893 0.0037010238 -1.2416220)
  triclinic box = (-0.00043121516 0.0048660643 -9.7033041e-05) to (37.517242 39.464503 30.158815) with tilt (0.0020497845 0.0037010238 -1.2416220)
  triclinic box = (-0.00043121516 0.0048660643 -9.7033041e-05) to (37.517242 39.464503 30.158815) with tilt (0.0020497845 0.0036640136 -1.2416220)
if "${dir} == 2" then    "change_box all y delta 0 ${delta} yz delta ${deltayz} remap units box"
if "${dir} == 3" then    "change_box all z delta 0 ${delta} remap units box"
if "${dir} == 4" then    "change_box all yz delta ${delta} remap units box"
if "${dir} == 5" then    "change_box all xz delta ${delta} remap units box"
if "${dir} == 6" then    "change_box all xy delta ${delta} remap units box"

# Relax atoms positions

minimize ${etol} ${ftol} ${maxiter} ${maxeval}
minimize 1e-10 ${ftol} ${maxiter} ${maxeval}
minimize 1e-10 1e-10 ${maxiter} ${maxeval}
minimize 1e-10 1e-10 100000 ${maxeval}
minimize 1e-10 1e-10 100000 10000000
Neighbor list info ...
  update every 1 steps, delay 0 steps, check yes
  max neighbors/atom: 2000, page size: 100000
  master list distance cutoff = 13.5
  ghost atom cutoff = 13.5
  1 neighbor lists, perpetual/occasional/extra = 1 0 0
  (1) pair lj/cut, perpetual
      attributes: half, newton on
      pair build: half/nsq/newton
      stencil: none
      bin: none
WARNING: Inconsistent image flags (src/lammps-master/src/domain.cpp:812)
Per MPI rank memory allocation (min/avg/max) = 18.81 | 19.00 | 19.19 Mbytes
Step Temp PotEng Press Pxx Pyy Pzz Pxy Pxz Pyz Lx Ly Lz Volume 
       9            0    10383.231    12258.598    27703.493    5446.5003    3625.8004  -0.29266573   -7.9865585     340.6454    37.517673    39.459637    30.158912    44648.271 
      10            0    10373.631    11658.274    26157.354    5253.2104    3564.2584  -0.28700224   -7.7522494    307.68541    37.517673    39.459637    30.158912    44648.271 
      11            0    10365.064    11039.377    24585.209    5038.2572    3494.6657  -0.26539916   -7.5500138      275.627    37.517673    39.459637    30.158912    44648.271 
      12            0    10357.353    10395.936    22977.105    4798.2958    3412.4073  -0.21947406    -7.394069    246.08439    37.517673    39.459637    30.158912    44648.271 
      13            0    10350.328    9718.5246    21316.453    4528.4702    3310.6504  -0.13975194   -7.2940358    221.29587    37.517673    39.459637    30.158912    44648.271 
      14            0    10343.812    8990.9264    19573.078    4221.0378    3178.6636 -0.032324094    -7.253751    204.46084    37.517673    39.459637    30.158912    44648.271 
      15            0    10337.733    8204.2658    17738.604    3871.9555    3002.2381    0.1085047   -7.2958505    200.68188    37.517673    39.459637    30.158912    44648.271 
      16            0    10332.873    7491.5277    16126.933    3546.0183    2801.6315   0.25079262   -7.4096884    213.60044    37.517673    39.459637    30.158912    44648.271 
      17            0     10329.08    6881.8213    14781.268    3269.2653    2594.9311    0.3832951   -7.5329489    236.45648    37.517673    39.459637    30.158912    44648.271 
      18            0    10325.986    6347.2392    13616.796    3037.1672    2387.7545    0.5088048   -7.6605019    262.53209    37.517673    39.459637    30.158912    44648.271 
      19            0    10323.394      5870.42    12580.248    2846.3015     2184.711   0.62963281   -7.7882786    287.47673    37.517673    39.459637    30.158912    44648.271 
      20            0    10321.195    5440.5893    11637.209    2694.2695    1990.2897   0.75574942   -7.9122091    308.03707    37.517673    39.459637    30.158912    44648.271 
      21            0    10319.328    5051.3207    10765.084    2579.4923    1809.3857   0.90163045   -8.0493709    321.17907    37.517673    39.459637    30.158912    44648.271 
      22            0    10317.744    4699.5939    9949.8663    2501.1395    1647.7761    1.0680825   -8.1994042    323.79755    37.517673    39.459637    30.158912    44648.271 
      23            0    10316.403    4385.4183     9184.821     2458.934    1512.4999    1.2568338   -8.3759724    312.65975    37.517673    39.459637    30.158912    44648.271 
      24            0    10315.261    4111.7888    8470.3321    2452.4742    1412.5601    1.4692169    -8.584971    284.90978    37.517673    39.459637    30.158912    44648.271 
      25            0    10314.261    3883.3979    7812.2854    2479.8828    1358.0254    1.7053247   -8.8197908    237.97518    37.517673    39.459637    30.158912    44648.271 
      26            0    10313.448    3734.1279    7313.6872    2525.1067    1363.5899    1.9310449   -9.0949275    182.77414    37.517673    39.459637    30.158912    44648.271 
      27            0    10312.938    3623.5749    6953.3501     2570.405    1346.9695    2.0544038   -8.9797853    110.65974    37.517673    39.459637    30.158912    44648.271 
      28            0    10312.357    3568.6904    6701.0555    2589.0914    1415.9243    2.2405198    -9.532213    86.420782    37.517673    39.459637    30.158912    44648.271 
      29            0    10311.916    3487.1301    6426.9514    2623.9279    1410.5111    2.3637363   -9.6329615    28.341955    37.517673    39.459637    30.158912    44648.271 
      30            0    10311.724    3446.6104    6334.8812    2584.0042    1420.9458    1.9537055   -9.3692243    8.0554253    37.517673    39.459637    30.158912    44648.271 
      31            0    10311.386    3407.5718    6247.2918    2572.9828    1402.4409    1.9933992   -9.4212561   -31.279397    37.517673    39.459637    30.158912    44648.271 
      32            0    10311.165    3412.6353    6258.8958    2610.1184    1368.8918    2.4683539    -9.791697   -48.939288    37.517673    39.459637    30.158912    44648.271 
      33            0    10310.887    3345.5813    6126.6305    2583.0075    1327.1058    1.0850378   -9.6180715   -57.641334    37.517673    39.459637    30.158912    44648.271 
      34            0     10310.49    3249.5154    5956.7886    2523.6225    1268.1351    1.7934953   -9.7789942    -112.3112    37.517673    39.459637    30.158912    44648.271 
      35            0    10310.176    3191.9463     5863.383    2492.5406    1219.9152    3.2168137   -10.330147   -151.34045    37.517673    39.459637    30.158912    44648.271 
      36            0    10310.022    3152.2082    5770.3024    2467.7691    1218.5531    0.4291719   -8.8890616   -135.54335    37.517673    39.459637    30.158912    44648.271 
      37            0    10309.918    3099.9482    5660.2616    2431.6781    1207.9051   -1.5952597   -7.9795268      -142.65    37.517673    39.459637    30.158912    44648.271 
      38            0    10309.588    3048.1876    5570.3263    2389.3847    1184.8517   -1.0216934   -8.6322298    -186.9179    37.517673    39.459637    30.158912    44648.271 
      39            0    10309.499    3055.0964    5601.6271    2383.2643    1180.3979       1.6181   -10.113967   -212.38852    37.517673    39.459637    30.158912    44648.271 
      40            0    10309.434    3041.8011    5579.6545    2337.7122    1208.0366    3.9120563   -9.5722044   -192.74523    37.517673    39.459637    30.158912    44648.271 
      41            0    10309.248    3018.4019    5536.3985    2298.2866    1220.5205    5.1140536    -8.437018   -182.84073    37.517673    39.459637    30.158912    44648.271 
      42            0    10309.202    3020.0978    5540.2812    2317.9012     1202.111     2.732463   -9.0136674   -195.73477    37.517673    39.459637    30.158912    44648.271 
      43            0    10309.177    3024.6817    5564.2466    2322.6854    1187.1131   -1.7364687   -11.861887   -197.18099    37.517673    39.459637    30.158912    44648.271 
      44            0    10309.066    3010.6413    5628.9133    2322.3388    1080.6716   -3.3264116   -16.168636   -220.64251    37.517673    39.459637    30.158912    44648.271 
      45            0    10308.891    2963.6515    5596.1991    2281.5376    1013.2178    3.6217463   -8.8534607   -215.41964    37.517673    39.459637    30.158912    44648.271 
      46            0    10308.799    2879.3233    5399.7131    2208.0469    1030.2101    1.3948469   -8.7720498    -204.3262    37.517673    39.459637    30.158912    44648.271 
      47            0    10308.728    2786.2311    5163.1225    2130.4105    1065.1603  -0.80652122   -10.711676   -203.08625    37.517673    39.459637    30.158912    44648.271 
      48            0    10308.617     2807.888    5224.6018    2143.8179    1055.2443    1.8292491   -10.243522   -218.19505    37.517673    39.459637    30.158912    44648.271 
      49            0    10308.467    2864.9658    5402.5477    2171.3816    1020.9681    2.7865918   -9.0782428   -226.98022    37.517673    39.459637    30.158912    44648.271 
      50            0    10308.408    2871.8246     5419.509    2162.0416    1033.9231   0.28668371    -10.47777   -218.24139    37.517673    39.459637    30.158912    44648.271 
      51            0    10308.352    2845.9516    5358.4148    2123.6321    1055.8079   0.29100947   -10.958702    -211.3608    37.517673    39.459637    30.158912    44648.271 
      52            0    10308.315    2819.7383    5316.2154    2107.4845     1035.515    2.1563688   -9.4482476   -220.48617    37.517673    39.459637    30.158912    44648.271 
      53            0    10308.232    2804.3856    5321.4256    2126.9063    964.82483    2.8325894   -8.4201237   -263.60498    37.517673    39.459637    30.158912    44648.271 
      54            0    10308.132    2779.9254    5293.5809    2114.8104     931.3848   0.31885212   -11.549678   -270.61419    37.517673    39.459637    30.158912    44648.271 
      55            0    10308.032     2718.223     5156.091    2055.3845    943.19369   0.39063414   -11.865052    -231.3698    37.517673    39.459637    30.158912    44648.271 
      56            0    10307.957    2673.3819    5027.8224    2016.0032    976.32018    1.3566756   -9.0110243   -214.35058    37.517673    39.459637    30.158912    44648.271 
      57            0    10307.886     2690.096    5067.5521    2031.6384    971.09751    1.0253184   -8.6389006   -241.52606    37.517673    39.459637    30.158912    44648.271 
      58            0    10307.837    2714.0995     5170.978    2043.5651     927.7555    1.2239084   -11.469611   -267.11168    37.517673    39.459637    30.158912    44648.271 
      59            0    10307.792    2720.0605     5210.792    2029.8347    919.55488    1.6061897   -11.961338   -269.50579    37.517673    39.459637    30.158912    44648.271 
      60            0    10307.724    2708.5669    5167.4977    1983.1224    975.08067   0.31201824   -8.0395327   -258.06339    37.517673    39.459637    30.158912    44648.271 
      61            0     10307.65    2679.5713    5077.5556    1954.6527    1006.5057   0.55187064    -7.794629   -251.95041    37.517673    39.459637    30.158912    44648.271 
      62            0    10307.553      2663.13    5057.8041     1953.818    977.76804     2.012674   -10.959109    -256.5629    37.517673    39.459637    30.158912    44648.271 
      63            0    10307.489    2670.4933    5157.3435    1950.4344    903.70195   0.18754996   -11.529658    -243.8484    37.517673    39.459637    30.158912    44648.271 
      64            0    10307.455    2655.5604    5163.4702    1940.2543    862.95677  -0.23605325   -10.000339   -237.62745    37.517673    39.459637    30.158912    44648.271 
      65            0    10307.366    2611.1855    5050.8492    1909.9677    872.73967    1.0262867   -7.7127367   -245.40384    37.517673    39.459637    30.158912    44648.271 
      66            0    10307.335    2601.2136    5006.8585    1899.1174    897.66492    1.0650145   -9.5565779    -251.1413    37.517673    39.459637    30.158912    44648.271 
      67            0    10307.322    2598.5904    4987.2546    1899.5536    908.96293   0.83836147   -11.653387   -250.15112    37.517673    39.459637    30.158912    44648.271 
      68            0    10307.306    2614.9758     5034.457    1905.2871     905.1835   0.64434085   -8.9412953   -239.00277    37.517673    39.459637    30.158912    44648.271 
      69            0    10307.268    2645.0433    5118.7701    1921.1143     895.2454    1.0688934   -6.3487159   -246.14457    37.517673    39.459637    30.158912    44648.271 
      70            0    10307.203    2653.2826     5123.116    1923.8734    912.85841   0.89002181    -9.081133   -262.60561    37.517673    39.459637    30.158912    44648.271 
      71            0     10307.16    2615.5816    5006.4267    1892.9259    947.39231   0.67695836   -11.305801   -270.43437    37.517673    39.459637    30.158912    44648.271 
      72            0    10307.128    2566.8109    4882.6043    1846.9829    970.84543    1.1512542   -11.700377   -267.32503    37.517673    39.459637    30.158912    44648.271 
      73            0    10307.114    2562.2667    4898.5457    1842.1368    946.11752   0.78552369   -10.126902   -247.43115    37.517673    39.459637    30.158912    44648.271 
      74            0    10307.094    2575.3846    4977.7636    1863.4965    884.89369    0.5203646   -8.0824025    -228.6195    37.517673    39.459637    30.158912    44648.271 
      75            0    10307.034    2582.1936    5055.8118    1888.6154    802.15353    1.1347971   -9.6339119   -225.72362    37.517673    39.459637    30.158912    44648.271 
      76            0    10306.976    2547.4778    4994.3147    1863.4706    784.64809    1.0811869   -12.223846    -245.8529    37.517673    39.459637    30.158912    44648.271 
      77            0    10306.908    2512.4502    4918.9555     1812.636    805.75925   0.44077064   -12.235416    -253.7562    37.517673    39.459637    30.158912    44648.271 
      78            0    10306.875     2519.375     4934.754    1805.4567    817.91423    0.4149459   -10.067814   -241.84003    37.517673    39.459637    30.158912    44648.271 
      79            0    10306.854    2518.5774    4924.4611    1795.5631    835.70816   0.80247174   -8.9215812    -233.9197    37.517673    39.459637    30.158912    44648.271 
      80            0    10306.841    2515.4221    4897.6738    1781.7618    866.83062    1.0279095   -9.8974293   -234.19819    37.517673    39.459637    30.158912    44648.271 
      81            0    10306.826    2515.3932    4850.7434    1764.5313     930.9048   0.68272461   -11.907023   -251.14234    37.517673    39.459637    30.158912    44648.271 
      82            0    10306.795    2546.2532    4849.3507    1765.5342    1023.8746  -0.46016834   -11.456284   -258.23709    37.517673    39.459637    30.158912    44648.271 
      83            0    10306.748    2580.1762    4884.4261    1774.1776     1081.925   0.12511744   -8.3453047   -265.18445    37.517673    39.459637    30.158912    44648.271 
      84            0    10306.702    2561.4437     4872.419    1785.3233    1026.5887    2.1386598    -11.00904   -292.75474    37.517673    39.459637    30.158912    44648.271 
      85            0    10306.656    2514.0541      4814.16    1774.2138    953.78831     1.631901   -13.987224   -292.99877    37.517673    39.459637    30.158912    44648.271 
      86            0    10306.568    2455.0778    4720.8981     1737.407    906.92834   0.44772452   -13.218423   -283.11972    37.517673    39.459637    30.158912    44648.271 
      87            0    10306.546    2453.3567    4703.8601    1724.0771    932.13294   0.95188326   -10.684357   -277.95916    37.517673    39.459637    30.158912    44648.271 
      88            0    10306.534    2454.8468    4699.0375    1715.8241    949.67884   0.91119203   -9.5816607    -263.9224    37.517673    39.459637    30.158912    44648.271 
      89            0    10306.523    2458.0397    4732.1742    1710.4898    931.45489   0.41289173   -10.425225   -258.92458    37.517673    39.459637    30.158912    44648.271 
      90            0    10306.499    2470.6459    4836.1214    1696.1162    879.69999 -0.014151136   -11.442666   -246.94912    37.517673    39.459637    30.158912    44648.271 
      91            0    10306.482     2475.751    4891.3899    1684.7889    851.07428   0.35362822   -10.311026   -238.71602    37.517673    39.459637    30.158912    44648.271 
      92            0    10306.466    2469.9468    4893.3505    1660.7184    855.77148   0.86173367   -8.6245811   -238.58222    37.517673    39.459637    30.158912    44648.271 
      93            0    10306.441    2435.0478     4810.678    1626.9227     867.5429    1.0135377   -12.078271   -256.70495    37.517673    39.459637    30.158912    44648.271 
      94            0    10306.405    2407.2989    4762.5294    1600.9758    858.39154   0.30965265   -12.196897   -248.13524    37.517673    39.459637    30.158912    44648.271 
      95            0    10306.339    2394.5597    4757.0576    1602.1179    824.50341 -0.070713873   -10.847293   -238.78136    37.517673    39.459637    30.158912    44648.271 
      96            0    10306.323     2404.828    4777.3108    1614.4756    822.69761   0.35809412   -10.580247   -241.15101    37.517673    39.459637    30.158912    44648.271 
      97            0    10306.302    2411.4185    4780.2123    1614.8928    839.15031   0.81492978   -9.5873417   -241.09445    37.517673    39.459637    30.158912    44648.271 
      98            0    10306.287    2405.6544     4751.885    1613.0793    851.99901   0.75419268   -9.8838585   -252.76775    37.517673    39.459637    30.158912    44648.271 
      99            0    10306.276    2410.6395    4727.1374    1604.7439    900.03711  0.081418767   -11.494523   -261.05881    37.517673    39.459637    30.158912    44648.271 
     100            0    10306.262    2410.3827    4678.3665    1613.3485    939.43317  -0.17028019   -11.669664   -269.56195    37.517673    39.459637    30.158912    44648.271 
     101            0    10306.255    2409.5581    4664.9862    1618.5215    945.16666   0.81462355   -9.9473053   -270.51434    37.517673    39.459637    30.158912    44648.271 
     102            0    10306.244    2396.7915    4640.8725    1622.8206    926.68149    1.7946913   -9.1130546    -287.0497    37.517673    39.459637    30.158912    44648.271 
     103            0    10306.222    2366.8546    4580.9351    1619.8059    899.82272    -0.554689   -12.712365   -300.65838    37.517673    39.459637    30.158912    44648.271 
     104            0     10306.18    2327.6766     4503.658    1595.5822    883.78972   -1.7828833   -13.697684   -300.85997    37.517673    39.459637    30.158912    44648.271 
     105            0    10306.144    2344.2218    4544.9989    1585.6385    902.02812    3.1817919   -6.5328215   -276.73203    37.517673    39.459637    30.158912    44648.271 
     106            0    10306.103    2361.1216    4617.2756    1555.7808    910.30843    5.0177246   -3.1803583   -243.20516    37.517673    39.459637    30.158912    44648.271 
     107            0    10306.045    2354.9588    4640.7159    1507.9885    916.17208  -0.50174631    -12.51409   -249.27367    37.517673    39.459637    30.158912    44648.271 
     108            0    10306.003    2332.3834    4596.3489     1479.301    921.50034    -1.183141   -14.396073   -289.68493    37.517673    39.459637    30.158912    44648.271 
     109            0    10305.979    2304.9924    4552.5422    1472.7445    889.69041   0.18869794   -10.150564   -299.76987    37.517673    39.459637    30.158912    44648.271 
     110            0    10305.952    2313.1791    4582.0875    1496.8037    860.64602    1.2440411   -8.5995716   -280.49821    37.517673    39.459637    30.158912    44648.271 
     111            0    10305.932    2330.3279    4626.6007    1504.3345    860.04861   0.98200281   -10.751774   -272.64219    37.517673    39.459637    30.158912    44648.271 
     112            0    10305.914    2321.0753    4619.3061    1475.6691    868.25083 -0.019274855   -10.486729   -274.73378    37.517673    39.459637    30.158912    44648.271 
     113            0    10305.893     2290.868    4547.8124    1435.3615    889.43017  -0.85938823   -11.355431   -276.44015    37.517673    39.459637    30.158912    44648.271 
     114            0    10305.872    2264.1261    4478.7384    1411.2027    902.43716  -0.23706481   -11.813735   -276.91357    37.517673    39.459637    30.158912    44648.271 
     115            0    10305.839    2240.5819    4407.1005    1434.6589    879.98631    3.0848601    -6.271927   -284.86679    37.517673    39.459637    30.158912    44648.271 
     116            0    10305.804    2235.0131    4388.1281    1453.8437    863.06767    2.3444869   -7.7215061   -301.41954    37.517673    39.459637    30.158912    44648.271 
     117            0    10305.771    2253.5951    4446.1907    1419.7878    894.80693   -2.5968133   -16.865514   -318.56284    37.517673    39.459637    30.158912    44648.271 
     118            0    10305.734    2250.0312     4457.591    1377.6436    914.85901   -2.2143804   -12.821834   -318.19202    37.517673    39.459637    30.158912    44648.271 
     119            0    10305.697     2234.163    4425.2386    1334.4916    942.75873    2.1087201   -5.6796263   -311.50235    37.517673    39.459637    30.158912    44648.271 
     120            0    10305.653    2204.9128    4371.8283    1301.9768    940.93331    3.0156052   -10.189575   -320.95877    37.517673    39.459637    30.158912    44648.271 
     121            0    10305.629    2187.6398    4356.4438    1283.8189    922.65679   0.35459795   -12.086186   -321.05136    37.517673    39.459637    30.158912    44648.271 
     122            0    10305.606    2193.5324    4386.9968    1293.8732    899.72711   -3.1696206   -12.090105   -323.15498    37.517673    39.459637    30.158912    44648.271 
     123            0    10305.588    2202.3547    4392.6561    1322.5074    891.90053  -0.56855909   -10.431674   -318.68486    37.517673    39.459637    30.158912    44648.271 
     124            0    10305.572    2187.6479    4361.1464    1335.4816     866.3158    2.7992879   -8.6869596   -304.99041    37.517673    39.459637    30.158912    44648.271 
     125            0    10305.557    2160.0907    4335.8256    1282.7582    861.68843  -0.44644326   -12.337446   -316.26448    37.517673    39.459637    30.158912    44648.271 
     126            0     10305.55    2152.4393    4328.4807    1253.3702    875.46712   -1.3375197   -12.206806   -325.57995    37.517673    39.459637    30.158912    44648.271 
     127            0    10305.542    2150.5099     4318.627    1253.7099    879.19281   0.87709732   -8.8115006   -323.29942    37.517673    39.459637    30.158912    44648.271 
     128            0    10305.533    2154.2995    4325.2871      1257.77    879.84143    1.5736842   -9.7902911   -314.75231    37.517673    39.459637    30.158912    44648.271 
     129            0    10305.523    2160.4866    4348.6297    1255.2452    877.58482 0.0071431963   -12.377612   -313.62079    37.517673    39.459637    30.158912    44648.271 
     130            0    10305.515    2161.4406    4351.6127    1242.2695    890.43967  -0.97295383   -10.800037   -317.71219    37.517673    39.459637    30.158912    44648.271 
     131            0    10305.505    2157.5942    4323.3125    1234.8461    914.62392 -0.088754581   -9.2261322   -329.81643    37.517673    39.459637    30.158912    44648.271 
     132            0    10305.488    2158.2843    4290.5804    1238.3332     945.9394    1.2484164   -10.786052   -351.48164    37.517673    39.459637    30.158912    44648.271 
     133            0    10305.476    2149.2745     4284.503    1234.7856    928.53486   0.37795234   -11.283571   -355.26973    37.517673    39.459637    30.158912    44648.271 
     134            0    10305.459    2130.3928    4285.6736    1216.4546     889.0501  -0.78549659   -11.108769   -353.61232    37.517673    39.459637    30.158912    44648.271 
     135            0    10305.441    2098.7934    4231.2934    1191.5324    873.55426  -0.25087516   -11.306455   -340.60795    37.517673    39.459637    30.158912    44648.271 
     136            0    10305.429    2071.3819    4175.9574     1177.121    861.06738   0.41096298   -10.574208   -334.31382    37.517673    39.459637    30.158912    44648.271 
     137            0    10305.409    2053.4998    4140.7218    1138.1664    881.61134    1.1066176   -9.4842532   -347.05621    37.517673    39.459637    30.158912    44648.271 
     138            0    10305.397    2062.6995     4160.043    1118.1582    909.89723   0.38359961   -11.031902    -368.6894    37.517673    39.459637    30.158912    44648.271 
     139            0    10305.382    2084.6254    4207.5679    1116.9163    929.39188  -0.82817729   -12.189247   -373.89217    37.517673    39.459637    30.158912    44648.271 
     140            0    10305.372    2100.9688    4254.2803    1142.4009    906.22513  -0.36952527   -10.534037   -361.76263    37.517673    39.459637    30.158912    44648.271 
     141            0    10305.366    2102.2697    4258.2683     1155.395    893.14589   0.55715056   -9.9540228   -362.48078    37.517673    39.459637    30.158912    44648.271 
     142            0    10305.359    2085.5852    4213.6398    1146.3186    896.79722   0.64446807    -10.73708   -374.49511    37.517673    39.459637    30.158912    44648.271 
     143            0    10305.353    2069.3126    4182.0572     1124.062    901.81845  -0.58661014   -11.673022   -379.11126    37.517673    39.459637    30.158912    44648.271 
     144            0    10305.349    2055.0675    4164.3508    1101.3053     899.5465  -0.81821946   -11.170513   -373.65448    37.517673    39.459637    30.158912    44648.271 
     145            0    10305.347    2042.7815    4149.2077    1093.6377    885.49892   0.60053407   -9.8699608   -364.35571    37.517673    39.459637    30.158912    44648.271 
     146            0    10305.345    2044.0309    4146.5879    1095.7526    889.75234   0.80733342   -10.708661   -365.61865    37.517673    39.459637    30.158912    44648.271 
     147            0     10305.34    2056.4598    4157.1379    1105.6342    906.60733  -0.78831838    -12.62214   -379.52966    37.517673    39.459637    30.158912    44648.271 
     148            0    10305.336    2062.5513    4167.0875    1108.5402    912.02621  -0.64149976   -10.819391   -384.70993    37.517673    39.459637    30.158912    44648.271 
     149            0    10305.332    2065.1055    4173.8946    1110.9035    910.51847   0.60185764   -8.9983502   -390.28202    37.517673    39.459637    30.158912    44648.271 
     150            0    10305.326    2054.8124    4154.0916    1094.9127    915.43301   0.47901595   -11.634905   -396.88922    37.517673    39.459637    30.158912    44648.271 
     151            0    10305.322    2045.9638      4145.93    1071.6461    920.31528  -0.08861912    -12.40146   -393.96058    37.517673    39.459637    30.158912    44648.271 
     152            0    10305.312    2046.7967    4168.0347    1043.3048     929.0506  -0.52858111   -10.096725   -387.31338    37.517673    39.459637    30.158912    44648.271 
     153            0    10305.303    2044.2081    4154.2477    1047.9391    930.43766   0.15539405   -10.428187   -393.25165    37.517673    39.459637    30.158912    44648.271 
     154            0    10305.296    2026.0879    4099.1432      1073.37    905.75052    1.0186053   -12.054799   -406.89133    37.517673    39.459637    30.158912    44648.271 
     155            0    10305.286    2013.0051    4076.8657    1073.3265    888.82312   0.22949596   -10.654983   -419.40974    37.517673    39.459637    30.158912    44648.271 
     156            0    10305.279    2012.7284    4088.2639    1066.2502     883.6711  -0.61950885   -9.6870849   -424.16874    37.517673    39.459637    30.158912    44648.271 
     157            0    10305.271    2011.7045    4094.2138    1057.6805    883.21919  -0.64008212   -11.554696   -412.98104    37.517673    39.459637    30.158912    44648.271 
     158            0    10305.267    2013.4518     4091.128    1049.4877    899.73966   0.21184962   -11.717682   -409.66761    37.517673    39.459637    30.158912    44648.271 
     159            0    10305.263    2018.5563    4097.9995    1039.7273     917.9423   0.63444339   -10.419305   -417.06526    37.517673    39.459637    30.158912    44648.271 
     160            0    10305.258    2017.4986    4105.2608    1019.5831    927.65178   0.25995882   -10.516073   -424.91552    37.517673    39.459637    30.158912    44648.271 
     161            0    10305.257    2015.5215    4103.5224    1020.3518    922.69036  -0.35531232   -11.350043    -428.0397    37.517673    39.459637    30.158912    44648.271 
     162            0    10305.254    2015.4171    4094.6663    1038.0015    913.58339  -0.54574332   -11.237506   -429.66611    37.517673    39.459637    30.158912    44648.271 
     163            0    10305.251    2013.4804    4091.5964    1042.9631     905.8817   0.40483411   -10.561396    -430.8654    37.517673    39.459637    30.158912    44648.271 
     164            0    10305.249     2010.145    4090.2545    1031.6373    908.54317   0.91208242   -10.437449   -436.64772    37.517673    39.459637    30.158912    44648.271 
     165            0    10305.247    2001.5249    4071.7423    1015.6255     917.2068    -0.955279   -11.690554   -441.82861    37.517673    39.459637    30.158912    44648.271 
     166            0    10305.246    1994.1033     4053.063    1009.5498    919.69698  -0.91465341   -11.666091   -440.72747    37.517673    39.459637    30.158912    44648.271 
     167            0    10305.244     1991.187    4044.7666    1006.5137    922.28052    1.5690871   -9.8696617   -438.48581    37.517673    39.459637    30.158912    44648.271 
     168            0    10305.243     1995.896    4061.9294    1006.3276    919.43098   0.65537928   -10.660252   -439.08317    37.517673    39.459637    30.158912    44648.271 
     169            0    10305.241    2002.6043    4078.4052    1009.3724    920.03545   -1.2631761   -11.907441   -439.48951    37.517673    39.459637    30.158912    44648.271 
     170            0     10305.24    2014.8221    4084.2367    1028.1723    932.05713  -0.36318898   -10.201393   -448.30582    37.517673    39.459637    30.158912    44648.271 
     171            0    10305.239    2022.7311    4089.3349    1034.3997    944.45869    1.2062316   -9.7695002   -457.62935    37.517673    39.459637    30.158912    44648.271 
     172            0    10305.235    2014.7118    4087.8062     1022.138    934.19137    1.0441115   -12.637745   -468.00021    37.517673    39.459637    30.158912    44648.271 
     173            0    10305.232    2002.8287    4081.8945    1014.7457    911.84591   -1.2725023   -11.990881   -465.96672    37.517673    39.459637    30.158912    44648.271 
     174            0    10305.227    1990.9402     4064.887    1022.1498    885.78377   -1.3533706   -9.5204716    -456.7947    37.517673    39.459637    30.158912    44648.271 
     175            0    10305.225    1984.7611      4048.55    1027.6549    878.07845    1.4823268   -10.467457   -449.86383    37.517673    39.459637    30.158912    44648.271 
     176            0    10305.222    1989.8803    4049.1478    1019.7153    900.77777   0.88380031   -11.678426   -454.46323    37.517673    39.459637    30.158912    44648.271 
     177            0    10305.219    1995.4347    4049.0341    1006.7507    930.51935   -1.2345565   -11.134279    -464.1344    37.517673    39.459637    30.158912    44648.271 
     178            0    10305.216    2001.4329    4055.1635    1006.5092      942.626  -0.40326163   -10.656776   -465.40951    37.517673    39.459637    30.158912    44648.271 
     179            0    10305.214    2005.5472    4062.3389    1015.6345    938.66815   0.86717552   -10.975748    -466.9385    37.517673    39.459637    30.158912    44648.271 
     180            0    10305.211    2003.0554    4066.0021    1015.4756    927.68846   0.11511566   -11.111355   -469.85031    37.517673    39.459637    30.158912    44648.271 
     181            0     10305.21    1998.7379    4066.1712    1010.4058     919.6366  -0.46779517   -11.080064   -471.18126    37.517673    39.459637    30.158912    44648.271 
     182            0    10305.208    1996.5854    4062.6433    1003.2586     923.8543 -0.038068881   -10.738831   -472.02207    37.517673    39.459637    30.158912    44648.271 
     183            0    10305.207    1995.1572    4059.5257    1004.1731    921.77281   0.29059546   -10.764335   -472.28475    37.517673    39.459637    30.158912    44648.271 
     184            0    10305.206    1990.2126     4051.836      1005.57    913.23169   0.36191245   -11.369264   -471.98906    37.517673    39.459637    30.158912    44648.271 
     185            0    10305.205    1991.9715     4050.112     1007.193    918.60935  0.048109854   -10.820725   -475.86626    37.517673    39.459637    30.158912    44648.271 
     186            0    10305.203    1997.0903    4051.7455    1013.0846    926.44091  -0.12184707   -10.693868   -477.63278    37.517673    39.459637    30.158912    44648.271 
     187            0    10305.202    2004.2873    4052.1925    1024.2774    936.39211 0.0088182993   -11.767518   -473.87253    37.517673    39.459637    30.158912    44648.271 
     188            0      10305.2    2006.1069    4056.3823    1032.1723    929.76604   0.13984447   -10.823468   -471.37398    37.517673    39.459637    30.158912    44648.271 
     189            0    10305.199     2006.161    4066.7625    1029.7402    921.98009   0.16446089   -9.6518733   -471.87905    37.517673    39.459637    30.158912    44648.271 
     190            0    10305.197     2003.403    4078.7567    1019.8439    911.60848 -0.024472975   -11.807832   -473.07818    37.517673    39.459637    30.158912    44648.271 
     191            0    10305.195    1999.3887     4074.512    1016.0427    907.61158  0.042978024   -12.072593   -470.49775    37.517673    39.459637    30.158912    44648.271 
     192            0    10305.194    1996.7294    4061.5359    1020.2314    908.42072   0.41389427   -9.8868851   -469.84372    37.517673    39.459637    30.158912    44648.271 
     193            0    10305.192     2000.513    4065.4885    1023.2275    912.82298   0.40648676   -10.840074   -473.24049    37.517673    39.459637    30.158912    44648.271 
     194            0    10305.189     2004.181    4073.4045    1020.8053    918.33303  0.081942166   -11.589982    -475.9669    37.517673    39.459637    30.158912    44648.271 
     195            0    10305.187    2003.3705    4072.4673    1023.1001    914.54396  -0.44941898   -10.333166   -474.75304    37.517673    39.459637    30.158912    44648.271 
     196            0    10305.186    2001.5279    4067.0131    1024.3425    913.22796  -0.12764261    -10.18338   -473.54246    37.517673    39.459637    30.158912    44648.271 
     197            0    10305.184    2001.0375    4062.0274    1023.0078    918.07739   0.80072574   -11.240658   -476.32287    37.517673    39.459637    30.158912    44648.271 
     198            0    10305.183    2004.3096    4068.0405    1019.8564    925.03176   0.27200207   -11.212157   -476.37005    37.517673    39.459637    30.158912    44648.271 
     199            0    10305.183    2007.0787    4075.1058    1017.1916    928.93869  -0.39462746   -10.979695   -473.55526    37.517673    39.459637    30.158912    44648.271 
     200            0    10305.182    2005.9962    4072.7572    1022.4472    922.78437   0.15525612   -10.500468   -472.80581    37.517673    39.459637    30.158912    44648.271 
     201            0    10305.182    2003.9525    4067.5151     1026.121     918.2214   0.39499563   -10.681574   -473.76234    37.517673    39.459637    30.158912    44648.271 
     202            0    10305.181    2003.6197    4065.4235    1029.0522     916.3834   0.04728875   -11.365075   -475.38594    37.517673    39.459637    30.158912    44648.271 
     203            0    10305.181     2005.806    4071.2076    1029.8215    916.38875 -0.041843809   -10.798263   -475.56502    37.517673    39.459637    30.158912    44648.271 
     204            0    10305.181     2006.856    4074.9441    1030.9277    914.69639   0.20968098   -10.503259    -474.9341    37.517673    39.459637    30.158912    44648.271 
     205            0     10305.18    2008.2893    4074.4407    1032.4483      917.979   0.41022933     -11.4136   -474.07967    37.517673    39.459637    30.158912    44648.271 
     206            0     10305.18    2009.0813    4073.3857    1031.8422    922.01603  0.099204719   -11.284207   -472.80343    37.517673    39.459637    30.158912    44648.271 
     207            0    10305.179    2007.6321    4072.4905    1028.1344    922.27136   -0.2737727   -9.8638025   -470.65222    37.517673    39.459637    30.158912    44648.271 
     208            0    10305.177    2006.1156    4070.7108    1028.9741    918.66187   0.05745209   -10.839407   -470.13079    37.517673    39.459637    30.158912    44648.271 
     209            0    10305.177    2006.0472    4069.1831    1032.7384    916.22011    0.4110906    -11.93411   -470.61198    37.517673    39.459637    30.158912    44648.271 
     210            0    10305.176    2007.8914     4071.029    1030.4424     922.2029   0.29155397   -10.755896   -470.26371    37.517673    39.459637    30.158912    44648.271 
     211            0    10305.174    2007.9238    4074.9471    1024.1423    924.68209   0.16809385   -10.669225   -469.00002    37.517673    39.459637    30.158912    44648.271 
     212            0    10305.174    2008.3904    4081.7118    1019.5151    923.94422  0.074331594   -11.173145   -467.58734    37.517673    39.459637    30.158912    44648.271 
     213            0    10305.173     2008.416    4081.1776    1026.0668    918.00377 -0.023840474   -10.949167   -467.16622    37.517673    39.459637    30.158912    44648.271 
     214            0    10305.173    2008.5203    4079.5462    1030.6852    915.32949  0.034003041    -10.75158   -466.32188    37.517673    39.459637    30.158912    44648.271 
     215            0    10305.172    2010.2045    4080.3538    1031.5461    918.71363   0.25133275   -10.648166   -468.88333    37.517673    39.459637    30.158912    44648.271 
     216            0    10305.172    2011.1616    4078.8826    1032.9971    921.60503   0.22955553    -10.89785   -470.59769    37.517673    39.459637    30.158912    44648.271 
     217            0    10305.172    2011.4674    4076.3601    1035.6093    922.43279   0.10330525   -11.385312   -469.56103    37.517673    39.459637    30.158912    44648.271 
     218            0    10305.172    2009.9867    4075.9291    1034.8879    919.14313   0.17351167   -10.834025   -466.10757    37.517673    39.459637    30.158912    44648.271 
     219            0    10305.171    2009.0493    4077.5046    1032.9953    916.64792   0.17367907   -10.476343   -463.86776    37.517673    39.459637    30.158912    44648.271 
     220            0    10305.171    2008.8773    4077.9419    1032.6692    916.02074  0.013020878   -11.071907   -464.59055    37.517673    39.459637    30.158912    44648.271 
     221            0    10305.171    2008.8773    4077.9419    1032.6692    916.02074  0.013020878   -11.071907   -464.59055    37.517673    39.459637    30.158912    44648.271 
Loop time of 2.46827 on 8 procs for 212 steps with 3712 atoms

99.5% CPU use with 8 MPI tasks x 1 OpenMP threads

Minimization stats:
  Stopping criterion = linesearch alpha is zero
  Energy initial, next-to-last, final = 
      10383.2309070999   10305.1712078345   10305.1712078345
  Force two-norm initial, final = 381.31115 0.59557118
  Force max component initial, final = 14.187507 0.058698607
  Final line search alpha, max atom move = 2.4176953e-08 1.4191535e-09
  Iterations, force evaluations = 212 409

MPI task timing breakdown:
Section |  min time  |  avg time  |  max time  |%varavg| %total
---------------------------------------------------------------
Pair    | 1.4138     | 1.8304     | 2.2823     |  23.7 | 74.16
Bond    | 0.084069   | 0.088303   | 0.09057    |   0.7 |  3.58
Neigh   | 0          | 0          | 0          |   0.0 |  0.00
Comm    | 0.051179   | 0.5049     | 0.92255    |  45.4 | 20.46
Output  | 0.0083036  | 0.010856   | 0.026494   |   5.7 |  0.44
Modify  | 0          | 0          | 0          |   0.0 |  0.00
Other   |            | 0.03377    |            |       |  1.37

Nlocal:        464.000 ave         464 max         464 min
Histogram: 8 0 0 0 0 0 0 0 0 0
Nghost:        7191.00 ave        7191 max        7191 min
Histogram: 8 0 0 0 0 0 0 0 0 0
Neighs:        197781.0 ave      250823 max      144728 min
Histogram: 1 1 1 1 0 0 1 1 1 1

Total # of neighbors = 1582247
Ave neighs/atom = 426.25189
Ave special neighs/atom = 13.034483
Neighbor list builds = 0
Dangerous builds = 0

# Obtain new stress tensor

variable tmp equal pxx
variable pxx1 equal ${tmp}
variable pxx1 equal 4077.94193972706
variable tmp equal pyy
variable pyy1 equal ${tmp}
variable pyy1 equal 1032.66921035205
variable tmp equal pzz
variable pzz1 equal ${tmp}
variable pzz1 equal 916.020743951701
variable tmp equal pxy
variable pxy1 equal ${tmp}
variable pxy1 equal 0.0130208775196907
variable tmp equal pxz
variable pxz1 equal ${tmp}
variable pxz1 equal -11.0719070677279
variable tmp equal pyz
variable pyz1 equal ${tmp}
variable pyz1 equal -464.590548295278

# Compute elastic constant from pressure tensor

variable C1neg equal ${d1}
variable C1neg equal 41.2925629133078
variable C2neg equal ${d2}
variable C2neg equal 10.4485586599967
variable C3neg equal ${d3}
variable C3neg equal 9.24415412904578
variable C4neg equal ${d4}
variable C4neg equal -5.04053735130065
variable C5neg equal ${d5}
variable C5neg equal -0.02645624052855
variable C6neg equal ${d6}
variable C6neg equal 0.00726182556520256

# Reset box and simulation parameters

clear
OMP_NUM_THREADS environment is not set. Defaulting to 1 thread. (src/lammps-master/src/comm.cpp:94)
  using 1 OpenMP thread(s) per MPI task
box tilt large
read_restart restart.equil
Reading restart file ...
  restart file = 30 Nov 2020, LAMMPS = 30 Nov 2020
  restoring atom style full from restart
  triclinic box = (-0.00043121516 0.0048660643 -9.7033041e-05) to (37.896208 39.464503 30.158815) with tilt (0.0020704893 0.0037010238 -1.2416220)
  2 by 2 by 2 MPI processor grid
  restoring pair style lj/cut from restart
  restoring bond style harmonic from restart
  restoring angle style hybrid from restart
  restoring dihedral style harmonic from restart
  restoring improper style fourier from restart
  3712 atoms
  4096 bonds
  7808 angles
  9856 dihedrals
  3072 impropers
Finding 1-2 1-3 1-4 neighbors ...
  special bond factors lj:    0        0        1       
  special bond factors coul:  0        0        0       
     4 = max # of 1-2 neighbors
     8 = max # of 1-3 neighbors
    21 = max # of 1-4 neighbors
    25 = max # of special neighbors
  special bonds CPU = 0.001 seconds
  read_restart CPU = 0.005 seconds
include potential.mod
pair_style      lj/cut 12.5
bond_style      harmonic
angle_style     hybrid cosine/periodic fourier
dihedral_style  harmonic
improper_style  fourier


special_bonds   lj 0.0 0.0 1.0
pair_modify     tail yes mix arithmetic
include data.pair
bond_coeff     1      154.048673        1.928536  # Zn3f2 N_R
bond_coeff     2      122.127512        2.014866  # Zn3f2 O_2
bond_coeff     3      153.811316        1.929528  # Zn3f2 N_3
bond_coeff     4      527.945261        1.044419  # H_ N_3
bond_coeff     5      357.440381        1.081418  # H_ C_R
bond_coeff     6      331.069389        1.109401  # H_ C_3
bond_coeff     7      529.459447        1.043423  # H_ N_R
bond_coeff     8      663.718927        1.345073  # C_R N_R
bond_coeff     9      462.655054        1.379256  # C_R C_R
bond_coeff    10      369.943935        1.486000  # C_R C_3
bond_coeff    11      714.557442        1.269010  # C_R O_2
bond_coeff    12      646.680887        1.311940  # C_R O_R
bond_coeff    13      349.795899        1.514000  # C_3 C_3
bond_coeff    14      529.724731        1.450075  # C_3 N_R
bond_coeff    15      528.634538        1.451071  # C_3 N_3
angle_coeff     1                      fourier      183.483089        0.343737        0.374972        0.281246 # N_R Zn3f2 N_R
angle_coeff     2                      fourier      155.087435        0.343737        0.374972        0.281246 # N_R Zn3f2 O_2
angle_coeff     3                      fourier      183.341639        0.343737        0.374972        0.281246 # N_R Zn3f2 N_3
angle_coeff     4                      fourier      154.973760        0.343737        0.374972        0.281246 # O_2 Zn3f2 N_3
angle_coeff     5              cosine/periodic      159.573934              -1               3 # H_ C_R N_R
angle_coeff     6              cosine/periodic      424.885146              -1               3 # N_R C_R N_R
angle_coeff     7              cosine/periodic      114.578032              -1               3 # H_ C_R C_R
angle_coeff     8              cosine/periodic      307.398705              -1               3 # C_R C_R N_R
angle_coeff     9              cosine/periodic      198.274298              -1               3 # C_R C_R C_3
angle_coeff    10              cosine/periodic      273.097456              -1               3 # C_3 C_R N_R
angle_coeff    11              cosine/periodic      393.120049              -1               3 # O_2 C_R O_R
angle_coeff    12              cosine/periodic      266.629989              -1               3 # O_2 C_R C_3
angle_coeff    13              cosine/periodic      255.317313              -1               3 # O_R C_R C_3
angle_coeff    14                      fourier      117.318683        0.343737        0.374972        0.281246 # H_ C_3 C_3
angle_coeff    15                      fourier      170.007371        0.343737        0.374972        0.281246 # H_ C_3 N_R
angle_coeff    16                      fourier      121.777217        0.343737        0.374972        0.281246 # H_ C_3 C_R
angle_coeff    17                      fourier      303.594562        0.343737        0.374972        0.281246 # C_3 C_3 N_R
angle_coeff    18                      fourier      220.229931        0.343737        0.374972        0.281246 # C_3 C_3 C_R
angle_coeff    19                      fourier      312.548166        0.343737        0.374972        0.281246 # N_R C_3 C_R
angle_coeff    20                      fourier       75.498766        0.343737        0.374972        0.281246 # H_ C_3 H_
angle_coeff    21                      fourier      169.780468        0.343737        0.374972        0.281246 # H_ C_3 N_3
angle_coeff    22                      fourier      303.297032        0.343737        0.374972        0.281246 # C_3 C_3 N_3
angle_coeff    23              cosine/periodic      398.603153              -1               3 # N_R C_R O_R
angle_coeff    24                      fourier       51.536168        0.317506        0.313225        0.272502 # Zn3f2 N_3 H_
angle_coeff    25                      fourier      108.360206        0.317506        0.313225        0.272502 # Zn3f2 N_3 C_3
angle_coeff    26                      fourier       97.017167        0.317506        0.313225        0.272502 # H_ N_3 H_
angle_coeff    27                      fourier      144.695053        0.317506        0.313225        0.272502 # H_ N_3 C_3
angle_coeff    28              cosine/periodic       87.429320              -1               3 # Zn3f2 N_R C_R
angle_coeff    29              cosine/periodic      240.001032              -1               3 # C_R N_R C_R
angle_coeff    30              cosine/periodic      108.417222              -1               3 # H_ N_R C_3
angle_coeff    31              cosine/periodic      125.071223              -1               3 # H_ N_R C_R
angle_coeff    32              cosine/periodic      213.564697              -1               3 # C_3 N_R C_R
angle_coeff    33              cosine/periodic       84.412329              -1               3 # Zn3f2 O_2 C_R
dihedral_coeff     1        1.497136              -1               2 # H_ C_R N_R Zn3f2
dihedral_coeff     2        0.083333               1               3 # C_R C_R C_3 C_3
dihedral_coeff     3        2.245703              -1               2 # O_R C_R O_2 Zn3f2
dihedral_coeff     4        0.066219               1               3 # H_ C_3 C_3 C_R
dihedral_coeff     5        0.416667              -1               2 # H_ C_3 N_R H_
dihedral_coeff     6        0.030516               1               3 # H_ C_3 N_3 Zn3f2
improper_coeff     1        2.000000        1.000000       -1.000000        0.000000               0 # H_ C_R N_R N_R
pair_coeff 1 1 0.124 2.461553
pair_coeff 1 2 0.07386474125047755 2.5163434999999996
pair_coeff 1 3 0.11410521460476729 2.946202
pair_coeff 1 4 0.11410521460476729 2.946202
pair_coeff 1 5 0.09249864863877742 2.861121
pair_coeff 1 6 0.09249864863877742 2.861121
pair_coeff 1 7 0.08625543461139129 2.7898495
pair_coeff 1 8 0.08625543461139129 2.7898495
pair_coeff 2 2 0.044 2.571134
pair_coeff 2 3 0.0679705818718657 3.0009924999999997
pair_coeff 2 4 0.0679705818718657 3.0009924999999997
pair_coeff 2 5 0.05509990925582364 2.9159115
pair_coeff 2 6 0.05509990925582364 2.9159115
pair_coeff 2 7 0.05138093031466051 2.84464
pair_coeff 2 8 0.05138093031466051 2.84464
pair_coeff 3 3 0.105 3.430851
pair_coeff 3 4 0.105 3.430851
pair_coeff 3 5 0.08511756575466665 3.34577
pair_coeff 3 6 0.08511756575466665 3.34577
pair_coeff 3 7 0.07937253933193772 3.2744985
pair_coeff 3 8 0.07937253933193772 3.2744985
pair_coeff 4 4 0.105 3.430851
pair_coeff 4 5 0.08511756575466665 3.34577
pair_coeff 4 6 0.08511756575466665 3.34577
pair_coeff 4 7 0.07937253933193772 3.2744985
pair_coeff 4 8 0.07937253933193772 3.2744985
pair_coeff 5 5 0.069 3.2606889999999997
pair_coeff 5 6 0.069 3.2606889999999997
pair_coeff 5 7 0.06434283176858166 3.1894175
pair_coeff 5 8 0.06434283176858166 3.1894175
pair_coeff 6 6 0.069 3.2606889999999997
pair_coeff 6 7 0.06434283176858166 3.1894175
pair_coeff 6 8 0.06434283176858166 3.1894175
pair_coeff 7 7 0.06 3.118146
pair_coeff 7 8 0.06 3.118146
pair_coeff 8 8 0.06 3.118146

# Setup neighbor style
neighbor 1.0 nsq
neigh_modify once no every 1 delay 0 check yes

# Setup minimization style
min_style	     cg
min_modify	     dmax ${dmax} line quadratic
min_modify	     dmax 0.001 line quadratic

# Setup output
thermo		1
thermo_style custom step temp pe press pxx pyy pzz pxy pxz pyz lx ly lz vol
thermo_modify norm no

# Positive deformation

variable delta equal ${up}*${len0}
variable delta equal 0.01*${len0}
variable delta equal 0.01*37.8966394303209
variable deltaxy equal ${up}*xy
variable deltaxy equal 0.01*xy
variable deltaxz equal ${up}*xz
variable deltaxz equal 0.01*xz
variable deltayz equal ${up}*yz
variable deltayz equal 0.01*yz
if "${dir} == 1" then    "change_box all x delta 0 ${delta} xy delta ${deltaxy} xz delta ${deltaxz} remap units box"
change_box all x delta 0 ${delta} xy delta ${deltaxy} xz delta ${deltaxz} remap units box
change_box all x delta 0 0.378966394303209 xy delta ${deltaxy} xz delta ${deltaxz} remap units box
change_box all x delta 0 0.378966394303209 xy delta 2.07048934480085e-05 xz delta ${deltaxz} remap units box
change_box all x delta 0 0.378966394303209 xy delta 2.07048934480085e-05 xz delta 3.70102381528857e-05 remap units box
Changing box ...
  triclinic box = (-0.00043121516 0.0048660643 -9.7033041e-05) to (38.275175 39.464503 30.158815) with tilt (0.0020704893 0.0037010238 -1.2416220)
  triclinic box = (-0.00043121516 0.0048660643 -9.7033041e-05) to (38.275175 39.464503 30.158815) with tilt (0.0020911942 0.0037010238 -1.2416220)
  triclinic box = (-0.00043121516 0.0048660643 -9.7033041e-05) to (38.275175 39.464503 30.158815) with tilt (0.0020911942 0.0037380341 -1.2416220)
if "${dir} == 2" then    "change_box all y delta 0 ${delta} yz delta ${deltayz} remap units box"
if "${dir} == 3" then    "change_box all z delta 0 ${delta} remap units box"
if "${dir} == 4" then    "change_box all yz delta ${delta} remap units box"
if "${dir} == 5" then    "change_box all xz delta ${delta} remap units box"
if "${dir} == 6" then    "change_box all xy delta ${delta} remap units box"

# Relax atoms positions

minimize ${etol} ${ftol} ${maxiter} ${maxeval}
minimize 1e-10 ${ftol} ${maxiter} ${maxeval}
minimize 1e-10 1e-10 ${maxiter} ${maxeval}
minimize 1e-10 1e-10 100000 ${maxeval}
minimize 1e-10 1e-10 100000 10000000
Neighbor list info ...
  update every 1 steps, delay 0 steps, check yes
  max neighbors/atom: 2000, page size: 100000
  master list distance cutoff = 13.5
  ghost atom cutoff = 13.5
  1 neighbor lists, perpetual/occasional/extra = 1 0 0
  (1) pair lj/cut, perpetual
      attributes: half, newton on
      pair build: half/nsq/newton
      stencil: none
      bin: none
WARNING: Inconsistent image flags (src/lammps-master/src/domain.cpp:812)
Per MPI rank memory allocation (min/avg/max) = 18.81 | 19.00 | 19.19 Mbytes
Step Temp PotEng Press Pxx Pyy Pzz Pxy Pxz Pyz Lx Ly Lz Volume 
       9            0     10383.02   -12130.877   -27630.363   -5251.1957   -3511.0722  -0.96533019   -9.2970732   -255.84649    38.275606    39.459637    30.158912    45550.257 
      10            0    10373.461   -11524.544     -26068.3   -5062.3774   -3442.9537  -0.91392981   -9.0549941   -226.38613    38.275606    39.459637    30.158912    45550.257 
      11            0    10364.924   -10902.516   -24484.514   -4854.0905   -3368.9428  -0.83480155   -8.8458889   -197.96066    38.275606    39.459637    30.158912    45550.257 
      12            0     10357.23   -10258.901   -22869.129   -4623.3412   -3284.2342  -0.73401646   -8.6737202   -172.05345    38.275606    39.459637    30.158912    45550.257 
      13            0    10350.215   -9584.6896   -21206.093   -4365.9738   -3182.0018  -0.59874641   -8.5444555   -150.69695    38.275606    39.459637    30.158912    45550.257 
      14            0    10343.709   -8864.8647   -19467.133   -4075.6397   -3051.8209  -0.43775757   -8.4771561   -136.80029    38.275606    39.459637    30.158912    45550.257 
      15            0    10337.544   -8078.5791   -17614.044    -3744.316   -2877.3777  -0.24266487   -8.4797208     -134.847    38.275606    39.459637    30.158912    45550.257 
      16            0    10332.566   -7360.9159   -15970.511   -3434.5701   -2677.6668 -0.053992815   -8.5520274   -148.53176    38.275606    39.459637    30.158912    45550.257 
      17            0    10328.685   -6748.2207   -14599.075   -3174.0206   -2471.5665   0.10324087   -8.6499328   -171.74225    38.275606    39.459637    30.158912    45550.257 
      18            0     10325.52   -6212.3029   -13414.129   -2958.0677   -2264.7123   0.23178316    -8.750323   -198.16918    38.275606    39.459637    30.158912    45550.257 
      19            0    10322.872    -5735.345   -12361.316   -2783.1528   -2061.5661   0.34283126   -8.8495152   -223.76866    38.275606    39.459637    30.158912    45550.257 
      20            0    10320.628   -5306.2707   -11405.546   -2646.8355   -1866.4312   0.44818718   -8.9444957   -245.55418    38.275606    39.459637    30.158912    45550.257 
      21            0    10318.719   -4918.4066    -10523.71   -2547.5597   -1683.9502   0.55432719   -9.0465865   -260.76626    38.275606    39.459637    30.158912    45550.257 
      22            0    10317.101     -4568.47    -9701.265   -2484.5254   -1519.6195   0.67589244   -9.1535638   -266.53633    38.275606    39.459637    30.158912    45550.257 
      23            0     10315.73   -4256.1903   -8930.8693   -2457.5376   -1380.1641   0.81036278   -9.2708657   -259.81939    38.275606    39.459637    30.158912    45550.257 
      24            0     10314.57   -3984.2715   -8212.2666   -2466.3626   -1274.1854   0.96387193   -9.4134136   -237.81628    38.275606    39.459637    30.158912    45550.257 
      25            0    10313.568   -3757.4543   -7551.1944   -2509.6274   -1211.5411    1.1470264   -9.5735696   -197.91999    38.275606    39.459637    30.158912    45550.257 
      26            0     10312.78   -3610.4511   -7055.0539   -2569.2431   -1207.0563    1.3467679    -9.751586   -149.58839    38.275606    39.459637    30.158912    45550.257 
      27            0    10312.242   -3511.7167   -6707.8869   -2626.3293   -1200.9339    1.4513918   -9.7037855   -88.576877    38.275606    39.459637    30.158912    45550.257 
      28            0    10311.941   -3484.9392   -6553.3571   -2638.8922   -1262.5684    1.6598562   -10.103521   -86.220196    38.275606    39.459637    30.158912    45550.257 
      29            0    10311.653   -3422.1813   -6300.3615   -2675.1875    -1290.995    1.8359483   -10.337188   -50.504728    38.275606    39.459637    30.158912    45550.257 
      30            0    10311.214    -3340.125   -6060.0904   -2724.2742   -1236.0104    1.8037156   -10.026844    18.948648    38.275606    39.459637    30.158912    45550.257 
      31            0    10310.946   -3280.5269   -5859.1597   -2746.5054   -1235.9157    1.8520778   -9.9258893    64.592328    38.275606    39.459637    30.158912    45550.257 
      32            0    10310.797   -3290.0378    -5861.742   -2738.6545   -1269.7168    1.9731946    -10.22186    54.694824    38.275606    39.459637    30.158912    45550.257 
      33            0    10310.546    -3272.695   -5825.1604   -2734.6704   -1258.2543    2.0914776   -10.516998    82.523853    38.275606    39.459637    30.158912    45550.257 
      34            0     10310.33    -3226.699   -5747.4696   -2726.2837   -1206.3436    1.9023436   -9.9883587    126.81467    38.275606    39.459637    30.158912    45550.257 
      35            0    10310.145   -3185.4958    -5688.689   -2696.2125   -1171.5859    1.8192885   -9.6077118    165.33422    38.275606    39.459637    30.158912    45550.257 
      36            0    10309.849   -3185.0121   -5702.8781   -2670.4991   -1181.6591    2.0405949    -10.13929     167.7455    38.275606    39.459637    30.158912    45550.257 
      37            0    10309.662    -3145.792   -5647.0206   -2651.8808   -1138.4747    2.0723814   -10.444098    196.25174    38.275606    39.459637    30.158912    45550.257 
      38            0    10309.503   -3093.2394    -5558.006   -2626.7797   -1094.9325    1.8339708   -9.8741884    228.02228    38.275606    39.459637    30.158912    45550.257 
      39            0    10309.357   -3017.2053   -5427.8881   -2555.4826   -1068.2451    1.7269486   -9.2035382    257.66567    38.275606    39.459637    30.158912    45550.257 
      40            0    10309.075   -2964.7263    -5335.921   -2514.0305   -1044.2276    1.8840313   -9.5272168    272.83839    38.275606    39.459637    30.158912    45550.257 
      41            0    10309.051   -2961.4837   -5325.9686   -2528.1425   -1030.3399    1.8305456   -9.8043937    274.50084    38.275606    39.459637    30.158912    45550.257 
      42            0    10308.914   -2950.7885   -5267.0221   -2495.4539   -1089.8893    1.3374373   -10.511482    241.27996    38.275606    39.459637    30.158912    45550.257 
      43            0    10308.748    -2932.306   -5233.6585   -2436.0784    -1127.181    1.8703553   -9.4839703    257.65781    38.275606    39.459637    30.158912    45550.257 
      44            0     10308.63   -2915.5155   -5203.4668    -2398.064   -1145.0156    2.0603809   -9.4819322    240.89358    38.275606    39.459637    30.158912    45550.257 
      45            0    10308.555   -2879.4982   -5143.6625   -2368.1907   -1126.6412    1.0360346   -10.075756    219.62926    38.275606    39.459637    30.158912    45550.257 
      46            0    10308.494   -2842.0662   -5108.8009   -2326.4708   -1090.9268   0.48180362   -10.390894    205.09804    38.275606    39.459637    30.158912    45550.257 
      47            0    10308.308   -2820.6556   -5135.3157   -2281.6642    -1044.987    1.2055063   -9.9740922    208.79567    38.275606    39.459637    30.158912    45550.257 
      48            0    10308.286   -2824.3255   -5159.8252   -2279.0643   -1034.0871     1.853987   -9.4965838    217.85654    38.275606    39.459637    30.158912    45550.257 
      49            0    10308.147   -2796.3566   -5217.8539   -2286.1321   -885.08369    1.7530688   -8.3577001     243.9107    38.275606    39.459637    30.158912    45550.257 
      50            0    10308.099   -2795.4126   -5255.8394    -2293.794   -836.60444    1.4237607   -9.4502759    249.95734    38.275606    39.459637    30.158912    45550.257 
      51            0    10308.062   -2756.4096   -5214.0391   -2290.2388   -764.95093    1.5345385   -11.440143    282.15497    38.275606    39.459637    30.158912    45550.257 
      52            0    10308.009   -2711.5035   -5129.7444   -2289.8115   -714.95446    2.0076531   -10.408616    307.59147    38.275606    39.459637    30.158912    45550.257 
      53            0    10307.968   -2700.4567   -5092.4524   -2312.2283   -696.68936    1.4050097   -8.0193583    322.60097    38.275606    39.459637    30.158912    45550.257 
      54            0    10307.905   -2676.2742   -5016.7733   -2318.5395   -693.50994   0.79379312   -7.3491882    343.60828    38.275606    39.459637    30.158912    45550.257 
      55            0    10307.868   -2654.1654   -4959.6937   -2290.1924   -712.61006    1.8380841   -10.408576    340.94081    38.275606    39.459637    30.158912    45550.257 
      56            0    10307.811   -2618.9229   -4848.2309   -2249.6371   -758.90065    3.1884774   -14.288541    326.81327    38.275606    39.459637    30.158912    45550.257 
      57            0    10307.688    -2595.201   -4722.1663   -2221.7713   -841.66541    2.0604084   -11.011004    316.05938    38.275606    39.459637    30.158912    45550.257 
      58            0    10307.667   -2611.2577   -4754.5059   -2230.9823    -848.2849    1.6210468   -9.3495116    320.82364    38.275606    39.459637    30.158912    45550.257 
      59            0     10307.65   -2645.1705   -4850.2791   -2254.1114   -831.12096     1.185211   -8.4860985    324.12121    38.275606    39.459637    30.158912    45550.257 
      60            0    10307.605   -2689.3877    -5037.288   -2245.7384   -785.13669      1.44956   -10.887055    319.28041    38.275606    39.459637    30.158912    45550.257 
      61            0    10307.549   -2695.1323   -5136.9614   -2202.9817   -745.45369    2.3998689   -10.812601    304.57371    38.275606    39.459637    30.158912    45550.257 
      62            0    10307.516   -2670.8375   -5114.5428   -2164.6716   -733.29809    1.4492747   -8.5083316    274.60338    38.275606    39.459637    30.158912    45550.257 
      63            0     10307.48   -2641.7005   -5050.7199   -2135.2115   -739.17012   0.60658742   -8.8227711    255.52671    38.275606    39.459637    30.158912    45550.257 
      64            0    10307.412   -2611.5843   -4990.8181   -2083.2534   -760.68145   0.69172961   -10.049815     221.5802    38.275606    39.459637    30.158912    45550.257 
      65            0    10307.391   -2616.7602   -5008.2739    -2078.129   -763.87778    1.5468354   -9.4467309    223.78908    38.275606    39.459637    30.158912    45550.257 
      66            0    10307.364   -2642.6039   -5038.2705   -2103.4965   -786.04476    2.2716474   -8.3560242    254.99485    38.275606    39.459637    30.158912    45550.257 
      67            0    10307.336   -2668.7841   -5024.0581   -2143.6545   -838.63971     1.189256   -9.2040339    264.43326    38.275606    39.459637    30.158912    45550.257 
      68            0    10307.304   -2637.3586    -4892.852   -2178.2614   -840.96248   0.79190226   -10.751082    268.79672    38.275606    39.459637    30.158912    45550.257 
      69            0    10307.281   -2580.6946    -4750.755   -2158.2312   -833.09759    1.7762544   -9.6472211    278.26052    38.275606    39.459637    30.158912    45550.257 
      70            0     10307.26   -2530.2072   -4644.7809   -2127.0471   -818.79374    1.9633224   -8.4128398    287.36968    38.275606    39.459637    30.158912    45550.257 
      71            0    10307.216   -2488.8214   -4554.1102   -2092.7064   -819.64744    1.1386226   -9.0719598    283.45272    38.275606    39.459637    30.158912    45550.257 
      72            0    10307.165   -2480.4142   -4566.4292   -2074.0416   -800.77194    1.3034765   -10.466209    267.24137    38.275606    39.459637    30.158912    45550.257 
      73            0    10307.098   -2473.3895   -4617.9238   -2087.9307   -714.31392    1.5820329   -10.427365    275.56746    38.275606    39.459637    30.158912    45550.257 
      74            0    10307.036   -2479.3503   -4673.4785   -2091.3379   -673.23459    1.6012584   -8.3549635    326.03253    38.275606    39.459637    30.158912    45550.257 
      75            0     10306.99   -2499.4289   -4723.2299    -2109.837    -665.2199    1.6996851   -8.5608201    368.51205    38.275606    39.459637    30.158912    45550.257 
      76            0    10306.936    -2508.565   -4751.7602   -2116.3909   -657.54398    1.4611305    -9.692111     387.2605    38.275606    39.459637    30.158912    45550.257 
      77            0    10306.914   -2487.7307   -4721.2506   -2095.9679   -645.97357     1.319315   -9.3801305    356.83972    38.275606    39.459637    30.158912    45550.257 
      78            0    10306.887    -2456.337   -4662.7514   -2062.5637   -643.69593    1.7035202   -9.0635101    296.43717    38.275606    39.459637    30.158912    45550.257 
      79            0    10306.867   -2445.1351   -4611.7789   -2014.0654   -709.56093     1.660796   -9.4087544    279.21718    38.275606    39.459637    30.158912    45550.257 
      80            0    10306.845   -2426.1451   -4548.5228    -1968.397   -761.51539   0.81242995   -9.6022036     284.6269    38.275606    39.459637    30.158912    45550.257 
      81            0    10306.817   -2427.5472    -4524.973   -1961.6587    -796.0099    1.1778174   -9.3301508    286.79453    38.275606    39.459637    30.158912    45550.257 
      82            0    10306.801   -2443.4393   -4556.3118   -1981.6744   -792.33168     1.858096   -9.1510865    272.93605    38.275606    39.459637    30.158912    45550.257 
      83            0    10306.785   -2484.2599   -4660.2911   -2012.1008   -780.38795    1.5863557   -9.4212392     251.1529    38.275606    39.459637    30.158912    45550.257 
      84            0    10306.765   -2523.9701    -4770.958   -2000.9393   -800.01299   0.64899913   -9.4115204    241.21631    38.275606    39.459637    30.158912    45550.257 
      85            0    10306.733   -2527.8202   -4840.2929   -1969.7909   -773.37678    1.4098602   -9.1695046    242.27199    38.275606    39.459637    30.158912    45550.257 
      86            0    10306.694   -2497.9593   -4814.2249   -1939.8869   -739.76606    1.6952698   -9.2668672     222.6056    38.275606    39.459637    30.158912    45550.257 
      87            0    10306.672    -2472.128   -4780.5241   -1917.0132   -718.84664     1.133707    -9.298801     215.5432    38.275606    39.459637    30.158912    45550.257 
      88            0    10306.627   -2420.4918    -4738.266   -1842.5094   -680.69984   0.87513959   -9.2701498    187.48519    38.275606    39.459637    30.158912    45550.257 
      89            0    10306.596    -2421.957   -4746.1139   -1838.5192   -681.23782    1.8633615   -9.2894245    190.75103    38.275606    39.459637    30.158912    45550.257 
      90            0     10306.55   -2465.7892   -4770.7701   -1884.1616   -742.43607    2.2731066    -9.213587    228.39117    38.275606    39.459637    30.158912    45550.257 
      91            0    10306.495   -2474.9882   -4700.0193    -1923.902    -801.0432   0.53352498   -9.3086536    242.35429    38.275606    39.459637    30.158912    45550.257 
      92            0    10306.445    -2406.781   -4530.0147   -1927.1299   -763.19836   0.66224748   -9.5404092    240.96983    38.275606    39.459637    30.158912    45550.257 
      93            0    10306.421   -2357.3784     -4451.02   -1897.3649   -723.75036    1.9009874   -9.0793156    253.05626    38.275606    39.459637    30.158912    45550.257 
      94            0    10306.404   -2340.5619   -4432.2722   -1865.7261   -723.68748    1.6354466   -8.8125955    266.76566    38.275606    39.459637    30.158912    45550.257 
      95            0    10306.382   -2339.7885   -4433.3406    -1849.141   -736.88404   0.92593403   -9.8645309    268.57579    38.275606    39.459637    30.158912    45550.257 
      96            0    10306.367   -2341.3482   -4447.8538   -1843.6831   -732.50759    1.2621024   -9.9418671    260.97785    38.275606    39.459637    30.158912    45550.257 
      97            0    10306.347   -2329.1062   -4481.7715   -1844.4134   -661.13357     1.548716    -8.582619    257.12713    38.275606    39.459637    30.158912    45550.257 
      98            0    10306.329   -2319.4469   -4503.5343    -1845.962    -608.8443    1.3352557   -8.7686721    265.48075    38.275606    39.459637    30.158912    45550.257 
      99            0    10306.303   -2324.4141   -4511.8633   -1845.5094   -615.86963     1.664463   -9.8803127    300.41681    38.275606    39.459637    30.158912    45550.257 
     100            0    10306.282   -2330.4703    -4493.884   -1852.4902   -645.03689    1.3607694   -9.6225003     327.4589    38.275606    39.459637    30.158912    45550.257 
     101            0    10306.245   -2331.5062   -4465.4854   -1855.8204   -673.21292   0.46863764   -8.5395527    338.63001    38.275606    39.459637    30.158912    45550.257 
     102            0      10306.2   -2319.5435   -4469.2142   -1819.2492   -670.16697    1.7177262   -8.6248972    316.08563    38.275606    39.459637    30.158912    45550.257 
     103            0    10306.172   -2307.1271   -4465.6829   -1775.2745   -680.42387    2.2251379   -9.4166365    297.63383    38.275606    39.459637    30.158912    45550.257 
     104            0    10306.144   -2265.9191     -4388.19   -1708.9071   -700.66009   0.97528073   -10.214383    279.00378    38.275606    39.459637    30.158912    45550.257 
     105            0    10306.122   -2238.4136   -4311.9713   -1700.1501   -703.11946   0.47446895   -9.4790353    279.17962    38.275606    39.459637    30.158912    45550.257 
     106            0    10306.102   -2226.4543   -4249.3614   -1711.9027   -718.09869    1.6948619   -8.1693663    285.93837    38.275606    39.459637    30.158912    45550.257 
     107            0    10306.086   -2238.4201   -4275.9202    -1709.915   -729.42525    2.3277867   -8.6279799     287.7451    38.275606    39.459637    30.158912    45550.257 
     108            0    10306.064   -2255.4477   -4356.3028   -1698.6514   -711.38888   0.98807737   -10.097965    275.33777    38.275606    39.459637    30.158912    45550.257 
     109            0    10306.052   -2258.4054    -4381.446   -1702.5278   -691.24235   0.44785264   -9.8742495    263.65074    38.275606    39.459637    30.158912    45550.257 
     110            0    10306.038   -2248.0295    -4357.044   -1714.3465   -672.69812    1.7360435   -8.3147541    262.04824    38.275606    39.459637    30.158912    45550.257 
     111            0    10306.026   -2228.5138   -4319.7095   -1698.3287   -667.50314    2.3758262   -8.1816025    263.42597    38.275606    39.459637    30.158912    45550.257 
     112            0    10306.012   -2217.2096   -4314.5706   -1664.5056   -672.55246    1.2603646    -9.506929    260.38866    38.275606    39.459637    30.158912    45550.257 
     113            0        10306   -2215.4568   -4336.7759   -1643.9152   -665.67925   0.41006269   -10.075771    258.38857    38.275606    39.459637    30.158912    45550.257 
     114            0     10305.99   -2204.3028   -4334.0017   -1639.4738    -639.4331    1.2724759   -9.2539819    249.02471    38.275606    39.459637    30.158912    45550.257 
     115            0    10305.977   -2194.5144   -4299.7518   -1656.2959   -627.49541    2.2649088   -8.2862508     239.3922    38.275606    39.459637    30.158912    45550.257 
     116            0    10305.965   -2198.9261   -4275.7915   -1666.5509   -654.43577    1.7106887   -8.4446679    252.25257    38.275606    39.459637    30.158912    45550.257 
     117            0     10305.95   -2203.3459   -4270.7577   -1645.4208   -693.85914   0.56486649   -9.8692368    284.49253    38.275606    39.459637    30.158912    45550.257 
     118            0    10305.939   -2197.8365   -4264.6155   -1639.3463    -689.5477   0.85192936   -10.088887    291.31013    38.275606    39.459637    30.158912    45550.257 
     119            0    10305.922   -2186.2471   -4248.3276   -1653.0983   -657.31533    2.3292442   -7.9793262    277.68751    38.275606    39.459637    30.158912    45550.257 
     120            0     10305.91   -2174.1645   -4226.0885   -1636.5515   -659.85343     1.911957   -7.7691512    270.64796    38.275606    39.459637    30.158912    45550.257 
     121            0     10305.89    -2142.344   -4167.4364   -1582.2266   -677.36895    0.3159567   -10.422805    259.08793    38.275606    39.459637    30.158912    45550.257 
     122            0    10305.878   -2133.4245   -4153.8238   -1561.0424   -685.40743   0.91489662   -10.324625    263.58111    38.275606    39.459637    30.158912    45550.257 
     123            0    10305.864   -2138.3495   -4174.3346   -1553.4526   -687.26132     2.167355   -7.8769961    287.99804    38.275606    39.459637    30.158912    45550.257 
     124            0    10305.854   -2136.5297    -4178.878   -1566.3255   -664.38561    1.5538606   -8.1146661    297.53711    38.275606    39.459637    30.158912    45550.257 
     125            0    10305.847   -2130.9536   -4169.0442    -1576.046   -647.77044   0.90019562   -9.6458249    294.41888    38.275606    39.459637    30.158912    45550.257 
     126            0    10305.839   -2133.1525    -4181.982   -1566.8815   -650.59394    1.1835278    -9.824405    297.77901    38.275606    39.459637    30.158912    45550.257 
     127            0    10305.835   -2138.0843   -4198.3962   -1558.1039   -657.75287    1.4318163   -8.9351033    303.72682    38.275606    39.459637    30.158912    45550.257 
     128            0    10305.829   -2138.0608   -4193.9862   -1549.1968   -670.99941    1.5628518   -8.0884407    307.27216    38.275606    39.459637    30.158912    45550.257 
     129            0    10305.826   -2127.9221    -4168.026   -1543.1937   -672.54664    1.3851534   -8.9522365    302.86318    38.275606    39.459637    30.158912    45550.257 
     130            0    10305.823   -2113.3302    -4140.327   -1528.6473   -671.01627    1.0396232   -10.024047     297.5672    38.275606    39.459637    30.158912    45550.257 
     131            0    10305.821   -2107.8813   -4133.5572   -1519.1602    -670.9265    1.2230672    -9.312829    297.00566    38.275606    39.459637    30.158912    45550.257 
     132            0    10305.818   -2107.0193   -4131.8949   -1517.5794   -671.58363    1.7094162   -8.0923236    294.39903    38.275606    39.459637    30.158912    45550.257 
     133            0    10305.815   -2115.4593   -4145.7052   -1528.2017   -672.47102    1.4882917   -8.5923863     293.7645    38.275606    39.459637    30.158912    45550.257 
     134            0    10305.813   -2121.7643   -4157.7485   -1535.3135   -672.23099     1.033738   -9.5746179     296.2514    38.275606    39.459637    30.158912    45550.257 
     135            0    10305.809   -2112.2893   -4147.0268   -1520.6365   -669.20452    1.2651998   -9.4724354    289.66035    38.275606    39.459637    30.158912    45550.257 
     136            0    10305.806   -2100.2818   -4128.9053   -1506.1945   -665.74557    1.5827707   -8.9703825    284.46033    38.275606    39.459637    30.158912    45550.257 
     137            0    10305.802   -2085.1352   -4098.7734   -1493.2261   -663.40604    1.4528264   -8.5649896    285.67725    38.275606    39.459637    30.158912    45550.257 
     138            0      10305.8   -2086.7511   -4101.5558    -1492.385   -666.31251    1.0497282   -8.9292794     286.4083    38.275606    39.459637    30.158912    45550.257 
     139            0    10305.796    -2090.032   -4118.4159   -1488.9274   -662.75284    1.1989321   -9.5489829    285.38646    38.275606    39.459637    30.158912    45550.257 
     140            0    10305.792   -2086.6676   -4118.5045   -1484.8075   -656.69094    1.7483282   -9.4295112    292.66149    38.275606    39.459637    30.158912    45550.257 
     141            0    10305.786    -2085.595   -4106.9012   -1489.0222   -660.86172    1.3355549   -8.6142991    309.68077    38.275606    39.459637    30.158912    45550.257 
     142            0    10305.782   -2086.4716   -4104.4802   -1494.3943    -660.5403    1.0435868   -8.5554045    314.87407    38.275606    39.459637    30.158912    45550.257 
     143            0    10305.778   -2088.6728   -4109.3207   -1496.8381   -659.85962      1.47753   -9.2329904    315.08929    38.275606    39.459637    30.158912    45550.257 
     144            0    10305.775    -2090.513   -4108.9634   -1489.5332   -673.04237    1.4927756   -9.3243382    317.98023    38.275606    39.459637    30.158912    45550.257 
     145            0    10305.771   -2086.1735    -4095.584   -1474.6459   -688.29044    1.0933037    -9.003702    320.11405    38.275606    39.459637    30.158912    45550.257 
     146            0    10305.769   -2075.4208   -4071.9533   -1469.4278   -684.88132    1.2303741   -8.8833416    316.45188    38.275606    39.459637    30.158912    45550.257 
     147            0    10305.766   -2068.6014   -4054.7367   -1465.5727   -685.49486    1.5685917   -8.9018458    313.82007    38.275606    39.459637    30.158912    45550.257 
     148            0    10305.763    -2067.484   -4056.4154   -1457.1108   -688.92586    1.4184222   -9.0064219    312.41485    38.275606    39.459637    30.158912    45550.257 
     149            0    10305.762   -2066.6924   -4061.3873   -1452.7611   -685.92881    1.1209349   -9.1559149    315.04346    38.275606    39.459637    30.158912    45550.257 
     150            0    10305.761   -2068.6102   -4065.7291    -1459.697   -680.40466    1.2278202   -9.0799939    324.51532    38.275606    39.459637    30.158912    45550.257 
     151            0     10305.76   -2070.5863   -4069.2502   -1463.5072   -679.00139    1.4446431    -8.911229    326.87343    38.275606    39.459637    30.158912    45550.257 
     152            0    10305.759   -2071.1139   -4071.4264   -1462.9087   -679.00644    1.5524277   -8.8533766    324.44092    38.275606    39.459637    30.158912    45550.257 
     153            0    10305.757   -2069.4709    -4066.478   -1456.6916   -685.24304    1.2246646   -9.1335087    327.19079    38.275606    39.459637    30.158912    45550.257 
     154            0    10305.756   -2065.8056   -4057.8827   -1445.4219    -694.1122   0.92092798   -9.3677692    332.85001    38.275606    39.459637    30.158912    45550.257 
     155            0    10305.755    -2059.553   -4051.9526   -1447.0336   -679.67273    1.5405461   -8.8701287    333.50172    38.275606    39.459637    30.158912    45550.257 
     156            0    10305.753   -2055.9985   -4049.9039   -1451.7005   -666.39109    1.8051777   -8.6394732    333.15993    38.275606    39.459637    30.158912    45550.257 
     157            0    10305.752   -2061.2632   -4060.0101   -1450.4457   -673.33382   0.95924986   -9.2647627    332.98818    38.275606    39.459637    30.158912    45550.257 
     158            0    10305.749   -2063.3396   -4064.3152   -1444.2891    -681.4145   0.86757433   -9.4250685     333.7527    38.275606    39.459637    30.158912    45550.257 
     159            0    10305.747   -2058.7665   -4059.0469   -1437.8001   -679.45235    1.6243017   -8.9177937    334.52353    38.275606    39.459637    30.158912    45550.257 
     160            0    10305.745   -2056.8948   -4053.6795   -1442.0048   -674.99993    1.6331732   -8.6003433    334.33484    38.275606    39.459637    30.158912    45550.257 
     161            0    10305.742   -2058.8763     -4046.09   -1447.7751   -682.76381    1.1127616   -8.8387561    334.03656    38.275606    39.459637    30.158912    45550.257 
     162            0     10305.74   -2055.3753   -4037.4632   -1438.5406   -690.12194    1.1238437   -9.3831474    332.46686    38.275606    39.459637    30.158912    45550.257 
     163            0    10305.739   -2046.7199   -4030.4131   -1422.5676   -687.17889    1.3587463   -9.4564218    330.64608    38.275606    39.459637    30.158912    45550.257 
     164            0    10305.737    -2043.485   -4029.1947   -1422.1842   -679.07624    1.3777457   -8.5259766    332.71618    38.275606    39.459637    30.158912    45550.257 
     165            0    10305.736   -2044.1419   -4028.5326   -1429.8686   -674.02449    1.3666649   -8.2493256    336.94136    38.275606    39.459637    30.158912    45550.257 
     166            0    10305.735   -2047.8742   -4034.0395   -1432.8207   -676.76244    1.2680227   -9.4120642    341.94107    38.275606    39.459637    30.158912    45550.257 
     167            0    10305.733   -2051.7641   -4039.8358   -1431.3649    -684.0916    1.1419425   -9.6926514    348.71825    38.275606    39.459637    30.158912    45550.257 
     168            0    10305.732   -2050.8631   -4034.6749   -1432.3774   -685.53689    1.3150858   -8.6669918    356.14704    38.275606    39.459637    30.158912    45550.257 
     169            0    10305.732   -2048.8943   -4026.4238   -1436.3935   -683.86558    1.4703507   -8.3639742    355.50668    38.275606    39.459637    30.158912    45550.257 
     170            0     10305.73   -2053.5861   -4023.9299   -1442.8743     -693.954    1.1958325   -9.3485327    349.03688    38.275606    39.459637    30.158912    45550.257 
     171            0     10305.73   -2058.5651   -4028.8985   -1444.5116   -702.28521    1.0890634   -9.5460817    349.68611    38.275606    39.459637    30.158912    45550.257 
     172            0    10305.728   -2059.6662   -4037.7932   -1437.4798   -703.72565    1.3889198   -8.7595622    355.44997    38.275606    39.459637    30.158912    45550.257 
     173            0    10305.728   -2054.8083   -4030.7628   -1431.7222   -701.93981    1.4341188   -8.7280075    355.32351    38.275606    39.459637    30.158912    45550.257 
     174            0    10305.727   -2048.2624   -4012.7337   -1431.0717    -700.9818    1.1804565   -9.2227267    351.51412    38.275606    39.459637    30.158912    45550.257 
     175            0    10305.726   -2049.1877   -4013.9778   -1433.8347   -699.75052    1.1772649   -9.1339912     350.2403    38.275606    39.459637    30.158912    45550.257 
     176            0    10305.724   -2053.1941   -4027.1102   -1434.9776   -697.49464    1.3968679   -8.8042352    351.64784    38.275606    39.459637    30.158912    45550.257 
     177            0    10305.722   -2055.4133   -4034.3977   -1433.9231   -697.91913     1.363891   -8.9886861    354.54672    38.275606    39.459637    30.158912    45550.257 
     178            0    10305.721   -2054.2923   -4028.8827   -1433.8179   -700.17633    1.1435283   -9.1914842    356.90776    38.275606    39.459637    30.158912    45550.257 
     179            0     10305.72   -2047.1575   -4003.7751     -1433.25   -704.44726    1.0823076   -9.1478764    359.90047    38.275606    39.459637    30.158912    45550.257 
     180            0    10305.717   -2044.6434   -4001.0803   -1430.4497   -702.40008    1.3638842    -8.973477      359.919    38.275606    39.459637    30.158912    45550.257 
     181            0    10305.715    -2046.046   -4022.5339    -1425.448   -690.15606    1.5310241    -8.749662    360.66954    38.275606    39.459637    30.158912    45550.257 
     182            0    10305.713    -2046.811   -4027.6785   -1426.4193   -686.33527    1.1385286   -9.0356292    364.24416    38.275606    39.459637    30.158912    45550.257 
     183            0     10305.71    -2045.993   -4013.8432   -1430.9974   -693.13829   0.93100263   -9.4924017    366.59923    38.275606    39.459637    30.158912    45550.257 
     184            0     10305.71   -2047.3703   -4008.6297   -1433.7978   -699.68337    1.2538057   -9.1277428     365.7611    38.275606    39.459637    30.158912    45550.257 
     185            0    10305.709   -2053.1158   -4020.0543   -1436.8509   -702.44212    1.4172406   -8.5591609    366.05807    38.275606    39.459637    30.158912    45550.257 
     186            0    10305.707   -2055.8986   -4027.2067   -1440.5195    -699.9695    1.1931191   -8.9388097    366.44207    38.275606    39.459637    30.158912    45550.257 
     187            0    10305.706   -2054.2225   -4024.3742   -1442.8107   -695.48245    1.0908505   -9.3502367    365.73306    38.275606    39.459637    30.158912    45550.257 
     188            0    10305.706   -2051.7999   -4015.6478   -1441.9565   -697.79538    1.2148953   -9.0967452    364.03539    38.275606    39.459637    30.158912    45550.257 
     189            0    10305.705    -2052.375   -4013.1614   -1439.6694   -704.29427    1.2722951   -8.8357777    361.72085    38.275606    39.459637    30.158912    45550.257 
     190            0    10305.704   -2052.6055   -4017.8092   -1435.6565    -704.3509    1.2759473   -8.9154452    359.38462    38.275606    39.459637    30.158912    45550.257 
     191            0    10305.703   -2050.7957   -4019.3183   -1433.8555   -699.21336    1.2422112    -9.101258    359.02819    38.275606    39.459637    30.158912    45550.257 
     192            0    10305.703   -2049.0617   -4012.3995   -1439.7652   -695.02057    1.0946416   -9.1330276      358.916    38.275606    39.459637    30.158912    45550.257 
     193            0    10305.703   -2049.0617   -4012.3995   -1439.7652   -695.02057    1.0946416   -9.1330276      358.916    38.275606    39.459637    30.158912    45550.257 
Loop time of 2.13933 on 8 procs for 184 steps with 3712 atoms

99.6% CPU use with 8 MPI tasks x 1 OpenMP threads

Minimization stats:
  Stopping criterion = linesearch alpha is zero
  Energy initial, next-to-last, final = 
      10383.0201178222   10305.7031437608   10305.7031437608
  Force two-norm initial, final = 380.97461 1.7389706
  Force max component initial, final = 14.229949 0.14418300
  Final line search alpha, max atom move = 2.3742080e-09 3.4232042e-10
  Iterations, force evaluations = 184 360

MPI task timing breakdown:
Section |  min time  |  avg time  |  max time  |%varavg| %total
---------------------------------------------------------------
Pair    | 1.1591     | 1.5705     | 1.9761     |  22.9 | 73.41
Bond    | 0.073912   | 0.077576   | 0.080212   |   0.7 |  3.63
Neigh   | 0          | 0          | 0          |   0.0 |  0.00
Comm    | 0.04444    | 0.45244    | 0.86365    |  42.9 | 21.15
Output  | 0.0065854  | 0.0088102  | 0.022318   |   5.4 |  0.41
Modify  | 0          | 0          | 0          |   0.0 |  0.00
Other   |            | 0.03006    |            |       |  1.40

Nlocal:        464.000 ave         464 max         464 min
Histogram: 8 0 0 0 0 0 0 0 0 0
Nghost:        7120.00 ave        7120 max        7120 min
Histogram: 8 0 0 0 0 0 0 0 0 0
Neighs:        193956.0 ave      246015 max      141890 min
Histogram: 1 1 1 1 0 0 1 1 1 1

Total # of neighbors = 1551647
Ave neighs/atom = 418.00835
Ave special neighs/atom = 13.034483
Neighbor list builds = 0
Dangerous builds = 0

# Obtain new stress tensor

variable tmp equal pe
variable e1 equal ${tmp}
variable e1 equal 10305.7031437608
variable tmp equal press
variable p1 equal ${tmp}
variable p1 equal -2049.06174435882
variable tmp equal pxx
variable pxx1 equal ${tmp}
variable pxx1 equal -4012.39949576192
variable tmp equal pyy
variable pyy1 equal ${tmp}
variable pyy1 equal -1439.76517092181
variable tmp equal pzz
variable pzz1 equal ${tmp}
variable pzz1 equal -695.020566392747
variable tmp equal pxy
variable pxy1 equal ${tmp}
variable pxy1 equal 1.09464160092231
variable tmp equal pxz
variable pxz1 equal ${tmp}
variable pxz1 equal -9.13302755091006
variable tmp equal pyz
variable pyz1 equal ${tmp}
variable pyz1 equal 358.915995616383

# Compute elastic constant from pressure tensor

variable C1pos equal ${d1}
variable C1pos equal 40.6828216817843
variable C2pos equal ${d2}
variable C2pos equal 14.6033827082607
variable C3pos equal ${d3}
variable C3pos equal 7.07972194801934
variable C4pos equal ${d4}
variable C4pos equal -3.30364270488426
variable C5pos equal ${d5}
variable C5pos equal 0.00681054382439328
variable C6pos equal ${d6}
variable C6pos equal -0.0182213475450796

# Combine positive and negative

variable C1${dir} equal 0.5*(${C1neg}+${C1pos})
variable C11 equal 0.5*(${C1neg}+${C1pos})
variable C11 equal 0.5*(41.2925629133078+${C1pos})
variable C11 equal 0.5*(41.2925629133078+40.6828216817843)
variable C2${dir} equal 0.5*(${C2neg}+${C2pos})
variable C21 equal 0.5*(${C2neg}+${C2pos})
variable C21 equal 0.5*(10.4485586599967+${C2pos})
variable C21 equal 0.5*(10.4485586599967+14.6033827082607)
variable C3${dir} equal 0.5*(${C3neg}+${C3pos})
variable C31 equal 0.5*(${C3neg}+${C3pos})
variable C31 equal 0.5*(9.24415412904578+${C3pos})
variable C31 equal 0.5*(9.24415412904578+7.07972194801934)
variable C4${dir} equal 0.5*(${C4neg}+${C4pos})
variable C41 equal 0.5*(${C4neg}+${C4pos})
variable C41 equal 0.5*(-5.04053735130065+${C4pos})
variable C41 equal 0.5*(-5.04053735130065+-3.30364270488426)
variable C5${dir} equal 0.5*(${C5neg}+${C5pos})
variable C51 equal 0.5*(${C5neg}+${C5pos})
variable C51 equal 0.5*(-0.02645624052855+${C5pos})
variable C51 equal 0.5*(-0.02645624052855+0.00681054382439328)
variable C6${dir} equal 0.5*(${C6neg}+${C6pos})
variable C61 equal 0.5*(${C6neg}+${C6pos})
variable C61 equal 0.5*(0.00726182556520256+${C6pos})
variable C61 equal 0.5*(0.00726182556520256+-0.0182213475450796)

# Delete dir to make sure it is not reused

variable dir delete

# uyy Perturbation

variable dir equal 2
include displace.mod
# NOTE: This script should not need to be
# modified. See in.elastic for more info.
#
# Find which reference length to use

if "${dir} == 1" then    "variable len0 equal ${lx0}"
if "${dir} == 2" then    "variable len0 equal ${ly0}"
variable len0 equal ${ly0}
variable len0 equal 39.4596368713245
if "${dir} == 3" then    "variable len0 equal ${lz0}"
if "${dir} == 4" then    "variable len0 equal ${lz0}"
if "${dir} == 5" then    "variable len0 equal ${lz0}"
if "${dir} == 6" then    "variable len0 equal ${ly0}"

# Reset box and simulation parameters

clear
OMP_NUM_THREADS environment is not set. Defaulting to 1 thread. (src/lammps-master/src/comm.cpp:94)
  using 1 OpenMP thread(s) per MPI task
box tilt large
read_restart restart.equil
Reading restart file ...
  restart file = 30 Nov 2020, LAMMPS = 30 Nov 2020
  restoring atom style full from restart
  triclinic box = (-0.00043121516 0.0048660643 -9.7033041e-05) to (37.896208 39.464503 30.158815) with tilt (0.0020704893 0.0037010238 -1.2416220)
  2 by 2 by 2 MPI processor grid
  restoring pair style lj/cut from restart
  restoring bond style harmonic from restart
  restoring angle style hybrid from restart
  restoring dihedral style harmonic from restart
  restoring improper style fourier from restart
  3712 atoms
  4096 bonds
  7808 angles
  9856 dihedrals
  3072 impropers
Finding 1-2 1-3 1-4 neighbors ...
  special bond factors lj:    0        0        1       
  special bond factors coul:  0        0        0       
     4 = max # of 1-2 neighbors
     8 = max # of 1-3 neighbors
    21 = max # of 1-4 neighbors
    25 = max # of special neighbors
  special bonds CPU = 0.001 seconds
  read_restart CPU = 0.005 seconds
include potential.mod
pair_style      lj/cut 12.5
bond_style      harmonic
angle_style     hybrid cosine/periodic fourier
dihedral_style  harmonic
improper_style  fourier


special_bonds   lj 0.0 0.0 1.0
pair_modify     tail yes mix arithmetic
include data.pair
bond_coeff     1      154.048673        1.928536  # Zn3f2 N_R
bond_coeff     2      122.127512        2.014866  # Zn3f2 O_2
bond_coeff     3      153.811316        1.929528  # Zn3f2 N_3
bond_coeff     4      527.945261        1.044419  # H_ N_3
bond_coeff     5      357.440381        1.081418  # H_ C_R
bond_coeff     6      331.069389        1.109401  # H_ C_3
bond_coeff     7      529.459447        1.043423  # H_ N_R
bond_coeff     8      663.718927        1.345073  # C_R N_R
bond_coeff     9      462.655054        1.379256  # C_R C_R
bond_coeff    10      369.943935        1.486000  # C_R C_3
bond_coeff    11      714.557442        1.269010  # C_R O_2
bond_coeff    12      646.680887        1.311940  # C_R O_R
bond_coeff    13      349.795899        1.514000  # C_3 C_3
bond_coeff    14      529.724731        1.450075  # C_3 N_R
bond_coeff    15      528.634538        1.451071  # C_3 N_3
angle_coeff     1                      fourier      183.483089        0.343737        0.374972        0.281246 # N_R Zn3f2 N_R
angle_coeff     2                      fourier      155.087435        0.343737        0.374972        0.281246 # N_R Zn3f2 O_2
angle_coeff     3                      fourier      183.341639        0.343737        0.374972        0.281246 # N_R Zn3f2 N_3
angle_coeff     4                      fourier      154.973760        0.343737        0.374972        0.281246 # O_2 Zn3f2 N_3
angle_coeff     5              cosine/periodic      159.573934              -1               3 # H_ C_R N_R
angle_coeff     6              cosine/periodic      424.885146              -1               3 # N_R C_R N_R
angle_coeff     7              cosine/periodic      114.578032              -1               3 # H_ C_R C_R
angle_coeff     8              cosine/periodic      307.398705              -1               3 # C_R C_R N_R
angle_coeff     9              cosine/periodic      198.274298              -1               3 # C_R C_R C_3
angle_coeff    10              cosine/periodic      273.097456              -1               3 # C_3 C_R N_R
angle_coeff    11              cosine/periodic      393.120049              -1               3 # O_2 C_R O_R
angle_coeff    12              cosine/periodic      266.629989              -1               3 # O_2 C_R C_3
angle_coeff    13              cosine/periodic      255.317313              -1               3 # O_R C_R C_3
angle_coeff    14                      fourier      117.318683        0.343737        0.374972        0.281246 # H_ C_3 C_3
angle_coeff    15                      fourier      170.007371        0.343737        0.374972        0.281246 # H_ C_3 N_R
angle_coeff    16                      fourier      121.777217        0.343737        0.374972        0.281246 # H_ C_3 C_R
angle_coeff    17                      fourier      303.594562        0.343737        0.374972        0.281246 # C_3 C_3 N_R
angle_coeff    18                      fourier      220.229931        0.343737        0.374972        0.281246 # C_3 C_3 C_R
angle_coeff    19                      fourier      312.548166        0.343737        0.374972        0.281246 # N_R C_3 C_R
angle_coeff    20                      fourier       75.498766        0.343737        0.374972        0.281246 # H_ C_3 H_
angle_coeff    21                      fourier      169.780468        0.343737        0.374972        0.281246 # H_ C_3 N_3
angle_coeff    22                      fourier      303.297032        0.343737        0.374972        0.281246 # C_3 C_3 N_3
angle_coeff    23              cosine/periodic      398.603153              -1               3 # N_R C_R O_R
angle_coeff    24                      fourier       51.536168        0.317506        0.313225        0.272502 # Zn3f2 N_3 H_
angle_coeff    25                      fourier      108.360206        0.317506        0.313225        0.272502 # Zn3f2 N_3 C_3
angle_coeff    26                      fourier       97.017167        0.317506        0.313225        0.272502 # H_ N_3 H_
angle_coeff    27                      fourier      144.695053        0.317506        0.313225        0.272502 # H_ N_3 C_3
angle_coeff    28              cosine/periodic       87.429320              -1               3 # Zn3f2 N_R C_R
angle_coeff    29              cosine/periodic      240.001032              -1               3 # C_R N_R C_R
angle_coeff    30              cosine/periodic      108.417222              -1               3 # H_ N_R C_3
angle_coeff    31              cosine/periodic      125.071223              -1               3 # H_ N_R C_R
angle_coeff    32              cosine/periodic      213.564697              -1               3 # C_3 N_R C_R
angle_coeff    33              cosine/periodic       84.412329              -1               3 # Zn3f2 O_2 C_R
dihedral_coeff     1        1.497136              -1               2 # H_ C_R N_R Zn3f2
dihedral_coeff     2        0.083333               1               3 # C_R C_R C_3 C_3
dihedral_coeff     3        2.245703              -1               2 # O_R C_R O_2 Zn3f2
dihedral_coeff     4        0.066219               1               3 # H_ C_3 C_3 C_R
dihedral_coeff     5        0.416667              -1               2 # H_ C_3 N_R H_
dihedral_coeff     6        0.030516               1               3 # H_ C_3 N_3 Zn3f2
improper_coeff     1        2.000000        1.000000       -1.000000        0.000000               0 # H_ C_R N_R N_R
pair_coeff 1 1 0.124 2.461553
pair_coeff 1 2 0.07386474125047755 2.5163434999999996
pair_coeff 1 3 0.11410521460476729 2.946202
pair_coeff 1 4 0.11410521460476729 2.946202
pair_coeff 1 5 0.09249864863877742 2.861121
pair_coeff 1 6 0.09249864863877742 2.861121
pair_coeff 1 7 0.08625543461139129 2.7898495
pair_coeff 1 8 0.08625543461139129 2.7898495
pair_coeff 2 2 0.044 2.571134
pair_coeff 2 3 0.0679705818718657 3.0009924999999997
pair_coeff 2 4 0.0679705818718657 3.0009924999999997
pair_coeff 2 5 0.05509990925582364 2.9159115
pair_coeff 2 6 0.05509990925582364 2.9159115
pair_coeff 2 7 0.05138093031466051 2.84464
pair_coeff 2 8 0.05138093031466051 2.84464
pair_coeff 3 3 0.105 3.430851
pair_coeff 3 4 0.105 3.430851
pair_coeff 3 5 0.08511756575466665 3.34577
pair_coeff 3 6 0.08511756575466665 3.34577
pair_coeff 3 7 0.07937253933193772 3.2744985
pair_coeff 3 8 0.07937253933193772 3.2744985
pair_coeff 4 4 0.105 3.430851
pair_coeff 4 5 0.08511756575466665 3.34577
pair_coeff 4 6 0.08511756575466665 3.34577
pair_coeff 4 7 0.07937253933193772 3.2744985
pair_coeff 4 8 0.07937253933193772 3.2744985
pair_coeff 5 5 0.069 3.2606889999999997
pair_coeff 5 6 0.069 3.2606889999999997
pair_coeff 5 7 0.06434283176858166 3.1894175
pair_coeff 5 8 0.06434283176858166 3.1894175
pair_coeff 6 6 0.069 3.2606889999999997
pair_coeff 6 7 0.06434283176858166 3.1894175
pair_coeff 6 8 0.06434283176858166 3.1894175
pair_coeff 7 7 0.06 3.118146
pair_coeff 7 8 0.06 3.118146
pair_coeff 8 8 0.06 3.118146

# Setup neighbor style
neighbor 1.0 nsq
neigh_modify once no every 1 delay 0 check yes

# Setup minimization style
min_style	     cg
min_modify	     dmax ${dmax} line quadratic
min_modify	     dmax 0.001 line quadratic

# Setup output
thermo		1
thermo_style custom step temp pe press pxx pyy pzz pxy pxz pyz lx ly lz vol
thermo_modify norm no

# Negative deformation

variable delta equal -${up}*${len0}
variable delta equal -0.01*${len0}
variable delta equal -0.01*39.4596368713245
variable deltaxy equal -${up}*xy
variable deltaxy equal -0.01*xy
variable deltaxz equal -${up}*xz
variable deltaxz equal -0.01*xz
variable deltayz equal -${up}*yz
variable deltayz equal -0.01*yz
if "${dir} == 1" then    "change_box all x delta 0 ${delta} xy delta ${deltaxy} xz delta ${deltaxz} remap units box"
if "${dir} == 2" then    "change_box all y delta 0 ${delta} yz delta ${deltayz} remap units box"
change_box all y delta 0 ${delta} yz delta ${deltayz} remap units box
change_box all y delta 0 -0.394596368713245 yz delta ${deltayz} remap units box
change_box all y delta 0 -0.394596368713245 yz delta 0.0124162198956923 remap units box
Changing box ...
  triclinic box = (-0.00043121516 0.0048660643 -9.7033041e-05) to (37.896208 39.069907 30.158815) with tilt (0.0020704893 0.0037010238 -1.2416220)
  triclinic box = (-0.00043121516 0.0048660643 -9.7033041e-05) to (37.896208 39.069907 30.158815) with tilt (0.0020704893 0.0037010238 -1.2292058)
if "${dir} == 3" then    "change_box all z delta 0 ${delta} remap units box"
if "${dir} == 4" then    "change_box all yz delta ${delta} remap units box"
if "${dir} == 5" then    "change_box all xz delta ${delta} remap units box"
if "${dir} == 6" then    "change_box all xy delta ${delta} remap units box"

# Relax atoms positions

minimize ${etol} ${ftol} ${maxiter} ${maxeval}
minimize 1e-10 ${ftol} ${maxiter} ${maxeval}
minimize 1e-10 1e-10 ${maxiter} ${maxeval}
minimize 1e-10 1e-10 100000 ${maxeval}
minimize 1e-10 1e-10 100000 10000000
Neighbor list info ...
  update every 1 steps, delay 0 steps, check yes
  max neighbors/atom: 2000, page size: 100000
  master list distance cutoff = 13.5
  ghost atom cutoff = 13.5
  1 neighbor lists, perpetual/occasional/extra = 1 0 0
  (1) pair lj/cut, perpetual
      attributes: half, newton on
      pair build: half/nsq/newton
      stencil: none
      bin: none
WARNING: Inconsistent image flags (src/lammps-master/src/domain.cpp:812)
Per MPI rank memory allocation (min/avg/max) = 18.81 | 19.00 | 19.19 Mbytes
Step Temp PotEng Press Pxx Pyy Pzz Pxy Pxz Pyz Lx Ly Lz Volume 
       9            0    10363.277    9927.7489    5436.6038    21696.291    2650.3519  0.062018714   -9.1443785     618.4944    37.896639    39.065041    30.158912    44648.271 
      10            0    10358.201    9613.2862    5201.7204    20869.389    2768.7492  0.061467947   -8.8304114      737.075    37.896639    39.065041    30.158912    44648.271 
      11            0    10354.015     9308.448    4960.9052    20097.265    2867.1742  0.080314203   -8.5826279      844.201    37.896639    39.065041    30.158912    44648.271 
      12            0    10350.393    9009.7935    4715.4833    19364.672    2949.2255   0.12246063   -8.4047485    941.30574    37.896639    39.065041    30.158912    44648.271 
      13            0    10347.145    8714.6384    4467.0019    18659.849     3017.064   0.18365535   -8.2802265    1029.4225    37.896639    39.065041    30.158912    44648.271 
      14            0    10344.159    8420.9592     4217.453    17973.522    3071.9024   0.25885136   -8.2061832    1109.3372    37.896639    39.065041    30.158912    44648.271 
      15            0    10341.363      8127.17     3969.261    17297.857    3114.3921   0.34628147   -8.1771163    1181.7287    37.896639    39.065041    30.158912    44648.271 
      16            0    10338.702    7832.0559    3725.3642    16625.929    3144.8742   0.44395968   -8.1868947    1247.1695    37.896639    39.065041    30.158912    44648.271 
      17            0    10336.152    7536.2526    3490.4969    15954.699    3163.5618   0.54243423   -8.2205179    1305.8032    37.896639    39.065041    30.158912    44648.271 
      18            0     10333.71    7242.5897    3271.1442    15285.571    3171.0537   0.64421138   -8.2740441    1357.3287    37.896639    39.065041    30.158912    44648.271 
      19            0    10331.346    6950.9273    3071.2246    14612.863    3168.6944   0.74710519   -8.3373449    1401.8363    37.896639    39.065041    30.158912    44648.271 
      20            0     10329.03    6660.9005    2894.5103    13930.096    3158.0951   0.84995942    -8.408961    1438.9144    37.896639    39.065041    30.158912    44648.271 
      21            0    10326.725    6371.6559    2744.6631    13229.296    3141.0082   0.95858921   -8.4878344    1467.5236    37.896639    39.065041    30.158912    44648.271 
      22            0    10324.441    6088.9607    2628.5384     12518.54    3119.8034    1.0822153   -8.5736545    1485.4004    37.896639    39.065041    30.158912    44648.271 
      23            0    10322.361    5839.3287    2556.1976    11862.807    3098.9814    1.2078714   -8.6625317    1490.3082    37.896639    39.065041    30.158912    44648.271 
      24            0    10320.444    5616.3923      2517.64     11251.42    3080.1166    1.3333828   -8.7599356     1484.486    37.896639    39.065041    30.158912    44648.271 
      25            0    10318.688     5417.195    2504.7531    10683.029     3063.803    1.4580034   -8.8591819    1470.1646    37.896639    39.065041    30.158912    44648.271 
      26            0    10317.085     5237.926    2509.6223     10154.54    3049.6162    1.5790452   -8.9529616    1449.5904    37.896639    39.065041    30.158912    44648.271 
      27            0     10315.62    5072.7825    2525.6271    9656.2707    3036.4496    1.6989206   -9.0435599    1424.2978    37.896639    39.065041    30.158912    44648.271 
      28            0    10314.269    4917.4801    2547.8525    9181.6838    3022.9041    1.8135818   -9.1245202    1395.1149    37.896639    39.065041    30.158912    44648.271 
      29            0     10313.02    4769.0596    2572.7827    8726.6628    3007.7334    1.9245484   -9.2027954    1362.3802    37.896639    39.065041    30.158912    44648.271 
      30            0    10311.862    4625.1947    2597.6266    8288.8389    2989.1186    2.0458037   -9.2558211    1325.8062    37.896639    39.065041    30.158912    44648.271 
      31            0    10310.793    4486.2049    2621.2348    7869.3794    2968.0005    2.0850509   -9.3975201    1285.9931    37.896639    39.065041    30.158912    44648.271 
      32            0    10309.818    4348.5271    2638.1343    7473.5242    2933.9227    2.5288437   -8.9061703    1239.2294    37.896639    39.065041    30.158912    44648.271 
      33            0    10309.311     4278.198     2657.418    7240.2418    2936.9343    1.2503249    -11.07844    1219.1384    37.896639    39.065041    30.158912    44648.271 
      34            0    10308.818    4206.3252    2656.0115    7062.2946    2900.6694    2.6188872   -8.9055188    1186.6323    37.896639    39.065041    30.158912    44648.271 
      35            0    10307.985    4076.3567    2673.8964    6684.6201    2870.5536   0.93364722   -11.723467    1137.8475    37.896639    39.065041    30.158912    44648.271 
      36            0    10307.703    4030.9214    2667.8465    6582.3678    2842.5499    3.3180737   -8.4232672    1111.8031    37.896639    39.065041    30.158912    44648.271 
      37            0    10307.006    3918.5418     2682.518    6257.2059    2815.9016   0.99497962   -10.214817    1064.7971    37.896639    39.065041    30.158912    44648.271 
      38            0    10306.673    3858.4044    2674.7308    6123.0129    2777.4695    3.2358153   -9.0971132    1030.6137    37.896639    39.065041    30.158912    44648.271 
      39            0    10306.049    3748.2756    2681.7355    5821.2437    2741.8475    0.9601261   -10.407547    978.26964    37.896639    39.065041    30.158912    44648.271 
      40            0    10305.728    3688.3618    2672.9445    5690.1319    2702.0091     3.115193   -9.0144891    940.68954    37.896639    39.065041    30.158912    44648.271 
      41            0    10305.149    3576.6321    2671.3253    5405.6381    2652.9329    1.2275196    -10.74793    880.04817    37.896639    39.065041    30.158912    44648.271 
      42            0    10304.877    3523.2972    2659.6948    5296.2792    2613.9175      3.23737   -8.9338449     843.2461    37.896639    39.065041    30.158912    44648.271 
      43            0     10304.37    3420.7021    2651.9383    5048.9366    2561.2315    1.5995843   -9.8712423    781.50069    37.896639    39.065041    30.158912    44648.271 
      44            0    10304.134    3366.6267    2636.5257    4945.1172    2518.2372    3.5827408   -8.8633063    742.55882    37.896639    39.065041    30.158912    44648.271 
      45            0    10303.677    3269.7854    2622.7007    4725.0326    2461.6229    2.3232072   -9.6885529    681.11493    37.896639    39.065041    30.158912    44648.271 
      46            0    10303.451    3209.5179    2603.9998    4609.8537    2414.7002    3.9788065   -7.9672466    633.92031    37.896639    39.065041    30.158912    44648.271 
      47            0    10303.047    3121.8315    2586.7947     4419.056    2359.6438    2.2684963   -9.2707408     577.2034    37.896639    39.065041    30.158912    44648.271 
      48            0    10302.756    3036.3992    2555.1401    4262.8649    2291.1926    4.0874178   -9.4022886    516.41627    37.896639    39.065041    30.158912    44648.271 
      49            0    10302.417    2955.5222    2535.2824    4092.2284    2239.0558     2.687393   -9.5582613    461.88955    37.896639    39.065041    30.158912    44648.271 
      50            0    10302.157    2895.3115    2516.6339    3974.1198    2195.1808    2.5365395   -4.4101073    402.56095    37.896639    39.065041    30.158912    44648.271 
      51            0    10301.961    2834.2875    2486.8554    3869.6974    2146.3098    1.7425752   -11.760277    383.03061    37.896639    39.065041    30.158912    44648.271 
      52            0     10301.74    2755.0799     2446.562    3731.8349    2086.8427    2.6904394   -15.751531    345.07618    37.896639    39.065041    30.158912    44648.271 
      53            0    10301.607     2739.124    2443.5752    3693.1202    2080.6768    3.4382315   -8.3286296    315.29452    37.896639    39.065041    30.158912    44648.271 
      54            0    10301.465    2702.8376    2443.8008    3606.0163    2058.6958   0.54101171    1.7872242    258.73039    37.896639    39.065041    30.158912    44648.271 
      55            0    10301.264    2644.2296    2419.8802    3503.4544     2009.354  -0.57092353    1.0768403    216.96586    37.896639    39.065041    30.158912    44648.271 
      56            0    10301.132    2605.5774    2384.5235    3459.3469    1972.8619    2.5534566   -10.132537    227.38396    37.896639    39.065041    30.158912    44648.271 
      57            0    10301.098    2585.7463    2371.1758    3414.3122     1971.751    3.2714332   -11.860197    238.08641    37.896639    39.065041    30.158912    44648.271 
      58            0    10300.992    2562.0529    2362.2154    3356.6848    1967.2585    3.0398637   -1.2510679    207.54246    37.896639    39.065041    30.158912    44648.271 
      59            0    10300.781     2524.051    2340.5381    3300.8344    1930.7806    2.3957938  -0.58067387    176.76554    37.896639    39.065041    30.158912    44648.271 
      60            0    10300.712    2511.8881    2330.5463    3292.5263    1912.5916    2.3390659   -9.4233559    188.04102    37.896639    39.065041    30.158912    44648.271 
      61            0    10300.671     2492.492    2324.0005    3247.1253    1906.3502    3.4768306   -10.713983    199.76891    37.896639    39.065041    30.158912    44648.271 
      62            0    10300.506     2454.671    2305.5668     3167.826    1890.6202    2.9319059   -9.5446617    207.38081    37.896639    39.065041    30.158912    44648.271 
      63            0    10300.406    2448.7857    2279.9182    3204.4094    1862.0296    1.5346636   -7.2923701    166.95606    37.896639    39.065041    30.158912    44648.271 
      64            0     10300.37    2442.0294    2265.8426    3212.0755    1848.1701     1.944432   -7.9459783    146.97885    37.896639    39.065041    30.158912    44648.271 
      65            0    10300.213     2418.131      2260.66    3142.9085    1850.8244    3.1838664   -13.879027      162.525    37.896639    39.065041    30.158912    44648.271 
      66            0    10300.146    2404.4407    2255.4428    3110.4776    1847.4017     3.053825   -11.924869    173.06584    37.896639    39.065041    30.158912    44648.271 
      67            0    10300.087    2371.2544    2229.2831    3061.8829    1822.5971    2.6129749  -0.67486854    166.19716    37.896639    39.065041    30.158912    44648.271 
      68            0    10299.964    2346.8605    2208.8462    3028.6483     1803.087   0.13234879    5.0693084    147.12639    37.896639    39.065041    30.158912    44648.271 
      69            0    10299.809    2338.4229    2206.3159     3007.023    1801.9296   -2.3968084   -8.6198007    145.60005    37.896639    39.065041    30.158912    44648.271 
      70            0    10299.747    2302.4161    2169.0541    2966.8716    1771.3226    6.8047247   -19.323391    152.52114    37.896639    39.065041    30.158912    44648.271 
      71            0     10299.64    2265.6746    2132.4157    2911.2958    1753.3124    14.245225   -19.950214    152.11002    37.896639    39.065041    30.158912    44648.271 
      72            0    10299.442    2270.5594    2151.2297    2883.2138    1777.2347    3.8619023   -7.4813386    141.33544    37.896639    39.065041    30.158912    44648.271 
      73            0     10299.37    2234.0835    2135.5957    2843.0868    1723.5682    -4.704015    -5.571238     131.7176    37.896639    39.065041    30.158912    44648.271 
      74            0    10299.314    2183.3213    2096.7656    2784.3464    1668.8518   -10.373437   -5.3400302    119.84868    37.896639    39.065041    30.158912    44648.271 
      75            0    10299.146    2149.0261    2050.8839    2730.3645      1665.83   -6.8144356    -6.913043    113.87485    37.896639    39.065041    30.158912    44648.271 
      76            0    10299.063    2161.5553     2054.591    2726.3567    1703.7183    1.9141638   -9.2926072    123.12705    37.896639    39.065041    30.158912    44648.271 
      77            0    10299.044    2167.4602    2056.7982     2724.669    1720.9135    7.0778784   -10.492608    126.02808    37.896639    39.065041    30.158912    44648.271 
      78            0    10299.005    2175.2614    2077.0491    2713.5894    1735.1456    2.5493417   -9.9643251    134.73898    37.896639    39.065041    30.158912    44648.271 
      79            0    10298.958    2178.6242    2106.4365    2700.4678    1728.9683   -6.3447657   -7.3102361    142.06704    37.896639    39.065041    30.158912    44648.271 
      80            0    10298.837    2148.7782    2095.9178    2668.6557    1681.7609   -7.7175259    -4.913173    135.15485    37.896639    39.065041    30.158912    44648.271 
      81            0    10298.769    2112.1826    2023.2139    2641.0242    1672.3097    4.2340934   -9.6918466    129.44475    37.896639    39.065041    30.158912    44648.271 
      82            0    10298.737    2088.2594    1958.9061    2617.4328    1688.4392    10.833022   -13.408045    127.67127    37.896639    39.065041    30.158912    44648.271 
      83            0    10298.684    2089.4186    1948.2372     2600.816    1719.2026    3.5893595    -10.62685    121.95851    37.896639    39.065041    30.158912    44648.271 
      84            0    10298.609    2084.3454    1960.9845    2562.8446    1729.2071   -5.7489205   -5.7670942    114.68555    37.896639    39.065041    30.158912    44648.271 
      85            0    10298.508    2066.1083    1975.0397    2516.1022    1707.1831   -5.8306281   -5.7523726     126.8054    37.896639    39.065041    30.158912    44648.271 
      86            0     10298.42    2066.3086    1990.9511    2526.1552    1681.8196    2.2298655   -9.9450623    144.04576    37.896639    39.065041    30.158912    44648.271 
      87            0    10298.339    2058.9553    1981.0534    2532.5998    1663.2125    10.766914   -14.205897    145.69615    37.896639    39.065041    30.158912    44648.271 
      88            0    10298.258    2024.9971     1919.899    2483.6436    1671.4488    7.2196814   -12.369589    133.41758    37.896639    39.065041    30.158912    44648.271 
      89            0    10298.184    1989.7184    1856.8385    2427.5213    1684.7955   -2.6894155   -6.3783815    131.75321    37.896639    39.065041    30.158912    44648.271 
      90            0    10298.132    1987.8669    1855.3509    2422.3404    1685.9095   -5.4754481   -4.3110166    136.70265    37.896639    39.065041    30.158912    44648.271 
      91            0    10298.077    1988.0079    1866.6676    2412.3352    1685.0209  0.033665666   -9.9921937    134.14099    37.896639    39.065041    30.158912    44648.271 
      92            0     10298.03    1980.1924    1871.9641    2388.7713    1679.8417    7.2870454    -15.94329    135.37639    37.896639    39.065041    30.158912    44648.271 
      93            0    10297.977     1973.531    1876.1074    2376.0447    1668.4409    7.3950111   -10.948271    143.59647    37.896639    39.065041    30.158912    44648.271 
      94            0    10297.925    1970.1894    1869.1733    2364.0013    1677.3935  -0.43036732   -3.4549314    141.07614    37.896639    39.065041    30.158912    44648.271 
      95            0    10297.849    1955.9475     1833.311     2328.345    1706.1867   -7.5954511   -6.1161325    132.71564    37.896639    39.065041    30.158912    44648.271 
      96            0    10297.793    1931.5414    1791.6869    2313.1654    1689.7718   -1.2189538   -11.336348    136.20851    37.896639    39.065041    30.158912    44648.271 
      97            0    10297.731    1898.3766    1749.0687     2303.966    1642.0951    10.322713   -12.671769     135.1816    37.896639    39.065041    30.158912    44648.271 
      98            0    10297.671    1890.4397    1752.8659     2278.195    1640.2581    6.7751201   -11.189434    126.87577    37.896639    39.065041    30.158912    44648.271 
      99            0    10297.615    1889.9811    1767.3614    2238.9876    1663.5943   -3.7175814   -9.8814243    131.60098    37.896639    39.065041    30.158912    44648.271 
     100            0    10297.546    1875.8283    1748.2787    2208.6703     1670.536   -5.1297094   -7.3793729     142.0335    37.896639    39.065041    30.158912    44648.271 
     101            0    10297.505    1863.7066    1724.7029    2199.2536    1667.1633   0.59365763   -6.8584233    134.76712    37.896639    39.065041    30.158912    44648.271 
     102            0    10297.476    1857.0138    1711.4045    2195.1218    1664.5152    4.9016939   -10.153856       124.86    37.896639    39.065041    30.158912    44648.271 
     103            0    10297.452    1852.4425    1706.3053    2197.6089    1653.4134    3.6159542   -13.058545    126.51761    37.896639    39.065041    30.158912    44648.271 
     104            0    10297.426     1839.826    1691.4181     2190.972     1637.088   0.94205299   -11.810853    128.08092    37.896639    39.065041    30.158912    44648.271 
     105            0    10297.406    1832.2147    1685.7458    2168.7051    1642.1934  -0.57146373   -6.4417597    123.91789    37.896639    39.065041    30.158912    44648.271 
     106            0    10297.379    1831.4037    1689.0025    2149.1858    1656.0227  -0.98332054   -4.7091663    122.39235    37.896639    39.065041    30.158912    44648.271 
     107            0     10297.35    1826.8168    1677.5953    2144.1412    1658.7139    1.5944491   -11.570215    124.93959    37.896639    39.065041    30.158912    44648.271 
     108            0    10297.309     1808.476    1648.5202    2122.0421    1654.8656    4.7406919   -17.592083    122.64206    37.896639    39.065041    30.158912    44648.271 
     109            0    10297.269    1792.3298    1639.3023    2093.4023    1644.2848    3.2752818   -12.074615    113.69289    37.896639    39.065041    30.158912    44648.271 
     110            0    10297.208    1773.5888    1626.2654    2073.2321    1621.2688    0.2833919   -4.2426813    103.34286    37.896639    39.065041    30.158912    44648.271 
     111            0    10297.187    1765.9381    1608.7039    2071.4324    1617.6779   0.81246826   -7.5965602    105.29906    37.896639    39.065041    30.158912    44648.271 
     112            0     10297.18    1762.6619    1599.0291    2066.4645    1622.4921    1.3610085   -12.580894    109.94811    37.896639    39.065041    30.158912    44648.271 
     113            0    10297.172    1763.5555    1602.0454    2062.3814    1626.2396    1.3323049   -12.827571    109.36216    37.896639    39.065041    30.158912    44648.271 
     114            0    10297.159    1761.6075    1601.1895    2061.0339    1622.5993    1.3171857   -8.6699858    103.04082    37.896639    39.065041    30.158912    44648.271 
     115            0    10297.145    1755.0329    1592.8465     2056.343    1615.9093    1.4740352   -6.1502913    99.040818    37.896639    39.065041    30.158912    44648.271 
     116            0    10297.116    1743.0487    1586.6176    2028.9981    1613.5305    1.1829061   -8.0920399    94.356002    37.896639    39.065041    30.158912    44648.271 
     117            0    10297.075    1722.3909    1562.9693    1994.0262    1610.1772  0.051186578   -10.798979    85.576172    37.896639    39.065041    30.158912    44648.271 
     118            0    10297.039    1702.8866    1522.9294    1987.4181    1598.3125  -0.20868133   -11.258606    82.445964    37.896639    39.065041    30.158912    44648.271 
     119            0    10297.016    1693.0848    1507.6359    1984.9755    1586.6431    1.9855425   -10.532951    82.605532    37.896639    39.065041    30.158912    44648.271 
     120            0    10296.993    1689.8931    1516.5894    1969.6545    1583.4353    3.9857498   -9.0111832    84.434985    37.896639    39.065041    30.158912    44648.271 
     121            0    10296.971    1680.7262    1510.9996    1949.7072     1581.472    1.2562863   -8.6231942    87.678974    37.896639    39.065041    30.158912    44648.271 
     122            0    10296.956    1674.2465    1499.3897    1949.0684    1574.2815   -1.7035718   -9.8199768    83.938279    37.896639    39.065041    30.158912    44648.271 
     123            0    10296.939    1669.2315    1489.3113     1952.163    1566.2202 -0.015888039    -10.71623    67.192584    37.896639    39.065041    30.158912    44648.271 
     124            0    10296.928     1660.948    1475.1599    1937.7072    1569.9769    2.6404039   -10.131259    62.252498    37.896639    39.065041    30.158912    44648.271 
     125            0    10296.913    1647.9627    1455.0565    1909.7446    1579.0871    2.7553527    -9.457453    73.540746    37.896639    39.065041    30.158912    44648.271 
     126            0    10296.903    1645.7234    1455.6333    1904.4834    1577.0535    1.1358813   -9.6751297    75.602022    37.896639    39.065041    30.158912    44648.271 
     127            0    10296.889    1647.9162    1465.2235    1911.6675    1566.8577  -0.46525038   -9.6028565    62.666226    37.896639    39.065041    30.158912    44648.271 
     128            0    10296.876    1643.9468    1461.4457    1910.1432    1560.2516   -0.3343678   -9.5600823    59.687376    37.896639    39.065041    30.158912    44648.271 
     129            0     10296.86      1630.77    1446.1591    1895.2677    1550.8832    1.6172258   -11.022008    69.906644    37.896639    39.065041    30.158912    44648.271 
     130            0    10296.847    1618.3632     1430.242    1879.4297     1545.418    2.6326763   -11.236575    69.663614    37.896639    39.065041    30.158912    44648.271 
     131            0     10296.83    1603.4943    1400.7031    1863.5701    1546.2097    1.5378414   -7.7926277    55.476845    37.896639    39.065041    30.158912    44648.271 
     132            0    10296.817    1599.3364    1389.8969    1861.4983    1546.6139   0.42597232   -6.9805509    51.806938    37.896639    39.065041    30.158912    44648.271 
     133            0      10296.8     1596.557    1395.9482    1850.6613    1543.0614  -0.16889993   -11.920567    56.930101    37.896639    39.065041    30.158912    44648.271 
     134            0    10296.788    1588.0205     1394.704     1829.649    1539.7085  0.069751126   -14.062897    57.256341    37.896639    39.065041    30.158912    44648.271 
     135            0    10296.775    1580.8754    1383.4406    1822.1089    1537.0767    1.9663493   -9.2153288    51.105449    37.896639    39.065041    30.158912    44648.271 
     136            0    10296.763    1581.0989    1375.8143    1829.2813    1538.2012    3.2345994   -5.6121579    45.634606    37.896639    39.065041    30.158912    44648.271 
     137            0    10296.751    1573.6189     1364.078    1818.2213    1538.5573   0.74446922   -9.6618408    45.014708    37.896639    39.065041    30.158912    44648.271 
     138            0    10296.741    1559.7429    1349.1459    1800.6626    1529.4202   -1.7821969   -13.512683    46.848614    37.896639    39.065041    30.158912    44648.271 
     139            0    10296.733     1552.018    1342.5196    1798.8428    1514.6916   0.37648814   -10.434763    45.580811    37.896639    39.065041    30.158912    44648.271 
     140            0    10296.724    1552.1923    1344.9766    1798.2367    1513.3635    3.4536331   -7.0564685    42.074284    37.896639    39.065041    30.158912    44648.271 
     141            0    10296.717    1553.4852    1347.6891    1787.5356     1525.231    2.6422388   -8.9372382    41.458297    37.896639    39.065041    30.158912    44648.271 
     142            0     10296.71     1549.062    1341.1942    1776.1969     1529.795  -0.54658911   -12.186119    43.128848    37.896639    39.065041    30.158912    44648.271 
     143            0    10296.705    1541.6197    1329.4432    1771.8925    1523.5236   -1.4012907   -11.585781    41.601344    37.896639    39.065041    30.158912    44648.271 
     144            0    10296.697    1531.4896      1315.48    1766.9004    1512.0882    1.0696684   -8.2285326    34.739402    37.896639    39.065041    30.158912    44648.271 
     145            0     10296.69    1527.7007    1313.4662    1765.3327    1504.3032    3.0692994   -7.9911596    31.800153    37.896639    39.065041    30.158912    44648.271 
     146            0    10296.682    1526.7327    1317.6798    1760.9428    1501.5755    2.4977242   -10.763411    33.388285    37.896639    39.065041    30.158912    44648.271 
     147            0    10296.674    1522.9058    1314.2626    1747.4774    1506.9773  -0.14129879   -11.520727    32.679149    37.896639    39.065041    30.158912    44648.271 
     148            0    10296.664    1513.3607    1301.0908    1729.4779    1509.5135   -1.6359348   -10.058522    25.362837    37.896639    39.065041    30.158912    44648.271 
     149            0    10296.654    1506.7652    1292.6402    1723.3678    1504.2878   0.49431946    -9.460945    21.833726    37.896639    39.065041    30.158912    44648.271 
     150            0    10296.642    1500.3471    1285.8327      1715.24    1499.9687    3.0110674   -9.8241598    26.902749    37.896639    39.065041    30.158912    44648.271 
     151            0    10296.634    1493.3352    1278.3998    1705.2781    1496.3278    2.4861493    -9.798519    28.407501    37.896639    39.065041    30.158912    44648.271 
     152            0    10296.624    1485.0397    1270.6435    1698.4543    1486.0213 0.0085495378   -9.7545547    18.460089    37.896639    39.065041    30.158912    44648.271 
     153            0    10296.619    1481.5417    1268.4181    1695.2324    1480.9746  -0.82859416    -10.09722    12.618986    37.896639    39.065041    30.158912    44648.271 
     154            0    10296.614    1480.2582    1267.0516    1688.7926    1484.9304   0.64770531     -10.3623    13.963952    37.896639    39.065041    30.158912    44648.271 
     155            0    10296.608    1478.5599    1263.6659    1682.2882    1489.7256     2.182446   -10.295101    13.766483    37.896639    39.065041    30.158912    44648.271 
     156            0    10296.604    1474.8229    1259.1285    1676.0042    1489.3361    1.9339574    -9.882761    10.593094    37.896639    39.065041    30.158912    44648.271 
     157            0      10296.6    1470.0548    1255.8909    1671.2813    1482.9921   0.40813592   -9.3657105    9.0729073    37.896639    39.065041    30.158912    44648.271 
     158            0    10296.596    1465.3194    1253.0193    1666.3413    1476.5975  -0.26230821   -9.7857632    8.4214946    37.896639    39.065041    30.158912    44648.271 
     159            0    10296.589    1460.4448    1247.3143    1658.9935    1475.0265   0.53999397   -10.916862     7.163565    37.896639    39.065041    30.158912    44648.271 
     160            0    10296.585    1456.3853    1238.6893    1655.9122    1474.5543    1.7730512   -10.471003    5.8920254    37.896639    39.065041    30.158912    44648.271 
     161            0     10296.58    1454.8701    1234.0849    1658.2243    1472.3011    1.9262158   -8.8797617    2.5338393    37.896639    39.065041    30.158912    44648.271 
     162            0    10296.575    1458.0406    1241.4916    1657.3657    1475.2645   0.41686856    -9.266679  -0.66918802    37.896639    39.065041    30.158912    44648.271 
     163            0    10296.569     1455.478    1245.0846    1646.0447    1475.3046  -0.54653957   -11.278296   0.22119737    37.896639    39.065041    30.158912    44648.271 
     164            0    10296.564    1445.9204    1235.2518    1637.6342    1464.8752   0.64849882   -11.134354  0.010335929    37.896639    39.065041    30.158912    44648.271 
     165            0    10296.556    1440.1849    1223.8011    1635.5385    1461.2151    2.1918572   -8.7429662   -9.3169893    37.896639    39.065041    30.158912    44648.271 
     166            0     10296.55    1440.6125    1220.7311    1630.0731    1471.0333    1.6135883   -8.6582865   -14.177999    37.896639    39.065041    30.158912    44648.271 
     167            0    10296.544    1433.7035    1212.0489    1616.4308    1472.6309  0.043213017   -11.211876   -10.165995    37.896639    39.065041    30.158912    44648.271 
     168            0    10296.538    1426.2372    1205.3124    1612.8479    1460.5512   0.34948218   -11.427386   -11.435689    37.896639    39.065041    30.158912    44648.271 
     169            0    10296.531    1427.0524    1212.0768    1618.5024    1450.5779     1.130274   -9.3224395   -19.602028    37.896639    39.065041    30.158912    44648.271 
     170            0    10296.527    1430.6095    1218.3334    1619.2876    1454.2076   0.58195083   -8.8926901   -19.833294    37.896639    39.065041    30.158912    44648.271 
     171            0    10296.524    1426.7774    1211.5738    1612.1185    1456.6399   0.62877288   -10.011305   -16.944681    37.896639    39.065041    30.158912    44648.271 
     172            0    10296.521    1419.6873    1200.5745    1603.7534    1454.7341    1.6397651   -10.905422    -20.39522    37.896639    39.065041    30.158912    44648.271 
     173            0    10296.518    1416.0124     1193.845    1597.9001    1456.2922     1.448632   -10.825842   -27.641004    37.896639    39.065041    30.158912    44648.271 
     174            0    10296.515     1417.623    1195.4218    1600.5215    1456.9257   0.19930133   -9.6354979   -29.925248    37.896639    39.065041    30.158912    44648.271 
     175            0    10296.511    1417.9951    1199.0597    1600.5118    1454.4138 -0.035854278   -8.9878355   -28.684186    37.896639    39.065041    30.158912    44648.271 
     176            0    10296.507    1416.7187    1201.3947    1595.0085    1453.7528    0.8791564   -9.8677996   -27.063962    37.896639    39.065041    30.158912    44648.271 
     177            0    10296.503    1415.2938     1199.374    1594.1907    1452.3168    1.8949749   -10.874257   -29.518494    37.896639    39.065041    30.158912    44648.271 
     178            0    10296.498    1414.3379     1194.977     1597.169    1450.8676     1.687336   -10.774813   -35.306609    37.896639    39.065041    30.158912    44648.271 
     179            0    10296.495     1413.271    1192.6086     1592.175    1455.0293  -0.20926436   -10.131551   -38.799509    37.896639    39.065041    30.158912    44648.271 
     180            0    10296.489    1409.1399    1188.3556    1583.2483    1455.8156  -0.87158475   -9.4319674   -37.985844    37.896639    39.065041    30.158912    44648.271 
     181            0    10296.484    1404.1588    1181.2699    1582.5988    1448.6076    1.3272416   -9.0908831    -39.01805    37.896639    39.065041    30.158912    44648.271 
     182            0    10296.478     1404.167    1181.8582    1584.0906    1446.5523    2.9630572   -9.9665519   -44.890674    37.896639    39.065041    30.158912    44648.271 
     183            0    10296.475    1408.0215    1190.9003    1581.0102    1452.1539    1.1342536   -11.046264   -47.043143    37.896639    39.065041    30.158912    44648.271 
     184            0    10296.469    1408.3073    1193.2348    1576.2119    1455.4752   -1.1079871   -11.168589   -47.099131    37.896639    39.065041    30.158912    44648.271 
     185            0    10296.466    1405.1728    1184.1882    1575.9492    1455.3812   -0.0693657   -10.041143   -49.660651    37.896639    39.065041    30.158912    44648.271 
     186            0    10296.463    1403.4797    1177.7767    1578.1777    1454.4849    1.7761141     -8.61125    -55.72318    37.896639    39.065041    30.158912    44648.271 
     187            0    10296.461     1402.586    1179.5442     1578.984    1449.2298    1.8396811   -9.0309115   -57.918671    37.896639    39.065041    30.158912    44648.271 
     188            0    10296.459    1400.2156    1180.9249    1574.5001    1445.2218   0.93821434   -11.424875   -55.104013    37.896639    39.065041    30.158912    44648.271 
     189            0    10296.457    1400.4618    1181.5921    1569.8313    1449.9619   0.26722298   -12.028749    -53.67369    37.896639    39.065041    30.158912    44648.271 
     190            0    10296.454    1403.5599    1182.8238    1571.2509    1456.6049    0.1939941   -9.2131269   -57.642564    37.896639    39.065041    30.158912    44648.271 
     191            0    10296.452    1404.4089    1181.6056    1574.9811    1456.6401   0.73467392   -7.8767858   -60.492625    37.896639    39.065041    30.158912    44648.271 
     192            0     10296.45    1403.5598     1180.336    1575.7626    1454.5808    1.4169088   -10.296076   -59.625233    37.896639    39.065041    30.158912    44648.271 
     193            0    10296.448    1403.1386    1181.7397    1575.1765    1452.4996    1.4362578   -12.017338    -60.20078    37.896639    39.065041    30.158912    44648.271 
     194            0    10296.445    1402.1686    1180.8352    1576.7968    1448.8739   0.84071421   -10.597253    -64.60944    37.896639    39.065041    30.158912    44648.271 
     195            0    10296.443     1401.967      1178.21     1577.566     1450.125   0.14758163   -8.9657554   -66.518428    37.896639    39.065041    30.158912    44648.271 
     196            0    10296.441    1403.9626    1180.0143    1575.6285    1456.2449   0.29717101   -9.2936878   -64.512165    37.896639    39.065041    30.158912    44648.271 
     197            0    10296.439    1404.7514    1182.4924    1574.7631    1456.9988    1.3533745      -10.098     -64.6859    37.896639    39.065041    30.158912    44648.271 
     198            0    10296.436    1404.0974    1181.8112    1576.8913    1453.5899    1.7210058   -10.742147   -67.957476    37.896639    39.065041    30.158912    44648.271 
     199            0    10296.434    1405.9067    1182.9159    1580.0449    1454.7592   0.65250104   -10.879517   -69.591459    37.896639    39.065041    30.158912    44648.271 
     200            0    10296.431    1408.0578    1185.2061    1583.1374    1455.8298  -0.22410021   -9.7357578   -69.770143    37.896639    39.065041    30.158912    44648.271 
     201            0    10296.428    1406.1861    1183.1505    1582.7027    1452.7053   0.73937163   -9.1121274   -70.097961    37.896639    39.065041    30.158912    44648.271 
     202            0    10296.427    1404.4727     1180.565    1581.3233    1451.5298    1.7869704    -10.00798   -71.140686    37.896639    39.065041    30.158912    44648.271 
     203            0    10296.424    1406.9497    1182.5773    1584.2815    1453.9904    1.2900768   -10.842042   -74.171337    37.896639    39.065041    30.158912    44648.271 
     204            0    10296.422    1409.4351    1185.8858    1585.9842    1456.4352    0.5151048   -10.453402    -75.59775    37.896639    39.065041    30.158912    44648.271 
     205            0    10296.421    1410.0227    1188.5426    1582.6732    1458.8524   0.37849112   -9.7334705   -73.821814    37.896639    39.065041    30.158912    44648.271 
     206            0     10296.42    1408.9318    1188.3564    1580.9657    1457.4734   0.85098708   -9.6445782   -72.997307    37.896639    39.065041    30.158912    44648.271 
     207            0    10296.419    1407.5313    1186.4903    1583.0623    1453.0414    1.3075356   -9.9120855   -75.111563    37.896639    39.065041    30.158912    44648.271 
     208            0    10296.417    1407.6872    1185.3497    1584.8148    1452.8969    1.0471088    -10.38959   -76.621656    37.896639    39.065041    30.158912    44648.271 
     209            0    10296.416    1408.4563     1184.417    1585.6146    1455.3372   0.67235323    -10.70312   -76.599319    37.896639    39.065041    30.158912    44648.271 
     210            0    10296.416    1408.4388    1184.5208    1586.3397    1454.4558   0.91777188   -10.154196   -76.647899    37.896639    39.065041    30.158912    44648.271 
     211            0    10296.416    1408.4388    1184.5208    1586.3397    1454.4558   0.91777188   -10.154196   -76.647899    37.896639    39.065041    30.158912    44648.271 
Loop time of 2.29179 on 8 procs for 202 steps with 3712 atoms

99.5% CPU use with 8 MPI tasks x 1 OpenMP threads

Minimization stats:
  Stopping criterion = linesearch alpha is zero
  Energy initial, next-to-last, final = 
       10363.276725294   10296.4160402331   10296.4160402331
  Force two-norm initial, final = 253.84348 2.0950324
  Force max component initial, final = 11.795589 0.22590886
  Final line search alpha, max atom move = 2.3214274e-09 5.2443104e-10
  Iterations, force evaluations = 202 379

MPI task timing breakdown:
Section |  min time  |  avg time  |  max time  |%varavg| %total
---------------------------------------------------------------
Pair    | 1.2747     | 1.6894     | 2.1154     |  22.9 | 73.72
Bond    | 0.078604   | 0.081775   | 0.083957   |   0.6 |  3.57
Neigh   | 0          | 0          | 0          |   0.0 |  0.00
Comm    | 0.052663   | 0.47987    | 0.89547    |  43.0 | 20.94
Output  | 0.0072877  | 0.0097829  | 0.024756   |   5.7 |  0.43
Modify  | 0          | 0          | 0          |   0.0 |  0.00
Other   |            | 0.03096    |            |       |  1.35

Nlocal:        464.000 ave         464 max         464 min
Histogram: 8 0 0 0 0 0 0 0 0 0
Nghost:        7201.00 ave        7202 max        7200 min
Histogram: 4 0 0 0 0 0 0 0 0 4
Neighs:        197508.0 ave      250026 max      144986 min
Histogram: 1 1 1 1 0 0 1 1 1 1

Total # of neighbors = 1580062
Ave neighs/atom = 425.66325
Ave special neighs/atom = 13.034483
Neighbor list builds = 0
Dangerous builds = 0

# Obtain new stress tensor

variable tmp equal pxx
variable pxx1 equal ${tmp}
variable pxx1 equal 1184.52076463018
variable tmp equal pyy
variable pyy1 equal ${tmp}
variable pyy1 equal 1586.33970401097
variable tmp equal pzz
variable pzz1 equal ${tmp}
variable pzz1 equal 1454.4558129583
variable tmp equal pxy
variable pxy1 equal ${tmp}
variable pxy1 equal 0.917771875316518
variable tmp equal pxz
variable pxz1 equal ${tmp}
variable pxz1 equal -10.1541955306066
variable tmp equal pyz
variable pyz1 equal ${tmp}
variable pyz1 equal -76.6478991958545

# Compute elastic constant from pressure tensor

variable C1neg equal ${d1}
variable C1neg equal 11.9749728566387
variable C2neg equal ${d2}
variable C2neg equal 16.0586249369957
variable C3neg equal ${d3}
variable C3neg equal 14.6998474657551
variable C4neg equal ${d4}
variable C4neg equal -1.10970845930074
variable C5neg equal ${d5}
variable C5neg equal -0.0171575283786685
variable C6neg equal ${d6}
variable C6neg equal 0.0164292150503789

# Reset box and simulation parameters

clear
OMP_NUM_THREADS environment is not set. Defaulting to 1 thread. (src/lammps-master/src/comm.cpp:94)
  using 1 OpenMP thread(s) per MPI task
box tilt large
read_restart restart.equil
Reading restart file ...
  restart file = 30 Nov 2020, LAMMPS = 30 Nov 2020
  restoring atom style full from restart
  triclinic box = (-0.00043121516 0.0048660643 -9.7033041e-05) to (37.896208 39.464503 30.158815) with tilt (0.0020704893 0.0037010238 -1.2416220)
  2 by 2 by 2 MPI processor grid
  restoring pair style lj/cut from restart
  restoring bond style harmonic from restart
  restoring angle style hybrid from restart
  restoring dihedral style harmonic from restart
  restoring improper style fourier from restart
  3712 atoms
  4096 bonds
  7808 angles
  9856 dihedrals
  3072 impropers
Finding 1-2 1-3 1-4 neighbors ...
  special bond factors lj:    0        0        1       
  special bond factors coul:  0        0        0       
     4 = max # of 1-2 neighbors
     8 = max # of 1-3 neighbors
    21 = max # of 1-4 neighbors
    25 = max # of special neighbors
  special bonds CPU = 0.001 seconds
  read_restart CPU = 0.004 seconds
include potential.mod
pair_style      lj/cut 12.5
bond_style      harmonic
angle_style     hybrid cosine/periodic fourier
dihedral_style  harmonic
improper_style  fourier


special_bonds   lj 0.0 0.0 1.0
pair_modify     tail yes mix arithmetic
include data.pair
bond_coeff     1      154.048673        1.928536  # Zn3f2 N_R
bond_coeff     2      122.127512        2.014866  # Zn3f2 O_2
bond_coeff     3      153.811316        1.929528  # Zn3f2 N_3
bond_coeff     4      527.945261        1.044419  # H_ N_3
bond_coeff     5      357.440381        1.081418  # H_ C_R
bond_coeff     6      331.069389        1.109401  # H_ C_3
bond_coeff     7      529.459447        1.043423  # H_ N_R
bond_coeff     8      663.718927        1.345073  # C_R N_R
bond_coeff     9      462.655054        1.379256  # C_R C_R
bond_coeff    10      369.943935        1.486000  # C_R C_3
bond_coeff    11      714.557442        1.269010  # C_R O_2
bond_coeff    12      646.680887        1.311940  # C_R O_R
bond_coeff    13      349.795899        1.514000  # C_3 C_3
bond_coeff    14      529.724731        1.450075  # C_3 N_R
bond_coeff    15      528.634538        1.451071  # C_3 N_3
angle_coeff     1                      fourier      183.483089        0.343737        0.374972        0.281246 # N_R Zn3f2 N_R
angle_coeff     2                      fourier      155.087435        0.343737        0.374972        0.281246 # N_R Zn3f2 O_2
angle_coeff     3                      fourier      183.341639        0.343737        0.374972        0.281246 # N_R Zn3f2 N_3
angle_coeff     4                      fourier      154.973760        0.343737        0.374972        0.281246 # O_2 Zn3f2 N_3
angle_coeff     5              cosine/periodic      159.573934              -1               3 # H_ C_R N_R
angle_coeff     6              cosine/periodic      424.885146              -1               3 # N_R C_R N_R
angle_coeff     7              cosine/periodic      114.578032              -1               3 # H_ C_R C_R
angle_coeff     8              cosine/periodic      307.398705              -1               3 # C_R C_R N_R
angle_coeff     9              cosine/periodic      198.274298              -1               3 # C_R C_R C_3
angle_coeff    10              cosine/periodic      273.097456              -1               3 # C_3 C_R N_R
angle_coeff    11              cosine/periodic      393.120049              -1               3 # O_2 C_R O_R
angle_coeff    12              cosine/periodic      266.629989              -1               3 # O_2 C_R C_3
angle_coeff    13              cosine/periodic      255.317313              -1               3 # O_R C_R C_3
angle_coeff    14                      fourier      117.318683        0.343737        0.374972        0.281246 # H_ C_3 C_3
angle_coeff    15                      fourier      170.007371        0.343737        0.374972        0.281246 # H_ C_3 N_R
angle_coeff    16                      fourier      121.777217        0.343737        0.374972        0.281246 # H_ C_3 C_R
angle_coeff    17                      fourier      303.594562        0.343737        0.374972        0.281246 # C_3 C_3 N_R
angle_coeff    18                      fourier      220.229931        0.343737        0.374972        0.281246 # C_3 C_3 C_R
angle_coeff    19                      fourier      312.548166        0.343737        0.374972        0.281246 # N_R C_3 C_R
angle_coeff    20                      fourier       75.498766        0.343737        0.374972        0.281246 # H_ C_3 H_
angle_coeff    21                      fourier      169.780468        0.343737        0.374972        0.281246 # H_ C_3 N_3
angle_coeff    22                      fourier      303.297032        0.343737        0.374972        0.281246 # C_3 C_3 N_3
angle_coeff    23              cosine/periodic      398.603153              -1               3 # N_R C_R O_R
angle_coeff    24                      fourier       51.536168        0.317506        0.313225        0.272502 # Zn3f2 N_3 H_
angle_coeff    25                      fourier      108.360206        0.317506        0.313225        0.272502 # Zn3f2 N_3 C_3
angle_coeff    26                      fourier       97.017167        0.317506        0.313225        0.272502 # H_ N_3 H_
angle_coeff    27                      fourier      144.695053        0.317506        0.313225        0.272502 # H_ N_3 C_3
angle_coeff    28              cosine/periodic       87.429320              -1               3 # Zn3f2 N_R C_R
angle_coeff    29              cosine/periodic      240.001032              -1               3 # C_R N_R C_R
angle_coeff    30              cosine/periodic      108.417222              -1               3 # H_ N_R C_3
angle_coeff    31              cosine/periodic      125.071223              -1               3 # H_ N_R C_R
angle_coeff    32              cosine/periodic      213.564697              -1               3 # C_3 N_R C_R
angle_coeff    33              cosine/periodic       84.412329              -1               3 # Zn3f2 O_2 C_R
dihedral_coeff     1        1.497136              -1               2 # H_ C_R N_R Zn3f2
dihedral_coeff     2        0.083333               1               3 # C_R C_R C_3 C_3
dihedral_coeff     3        2.245703              -1               2 # O_R C_R O_2 Zn3f2
dihedral_coeff     4        0.066219               1               3 # H_ C_3 C_3 C_R
dihedral_coeff     5        0.416667              -1               2 # H_ C_3 N_R H_
dihedral_coeff     6        0.030516               1               3 # H_ C_3 N_3 Zn3f2
improper_coeff     1        2.000000        1.000000       -1.000000        0.000000               0 # H_ C_R N_R N_R
pair_coeff 1 1 0.124 2.461553
pair_coeff 1 2 0.07386474125047755 2.5163434999999996
pair_coeff 1 3 0.11410521460476729 2.946202
pair_coeff 1 4 0.11410521460476729 2.946202
pair_coeff 1 5 0.09249864863877742 2.861121
pair_coeff 1 6 0.09249864863877742 2.861121
pair_coeff 1 7 0.08625543461139129 2.7898495
pair_coeff 1 8 0.08625543461139129 2.7898495
pair_coeff 2 2 0.044 2.571134
pair_coeff 2 3 0.0679705818718657 3.0009924999999997
pair_coeff 2 4 0.0679705818718657 3.0009924999999997
pair_coeff 2 5 0.05509990925582364 2.9159115
pair_coeff 2 6 0.05509990925582364 2.9159115
pair_coeff 2 7 0.05138093031466051 2.84464
pair_coeff 2 8 0.05138093031466051 2.84464
pair_coeff 3 3 0.105 3.430851
pair_coeff 3 4 0.105 3.430851
pair_coeff 3 5 0.08511756575466665 3.34577
pair_coeff 3 6 0.08511756575466665 3.34577
pair_coeff 3 7 0.07937253933193772 3.2744985
pair_coeff 3 8 0.07937253933193772 3.2744985
pair_coeff 4 4 0.105 3.430851
pair_coeff 4 5 0.08511756575466665 3.34577
pair_coeff 4 6 0.08511756575466665 3.34577
pair_coeff 4 7 0.07937253933193772 3.2744985
pair_coeff 4 8 0.07937253933193772 3.2744985
pair_coeff 5 5 0.069 3.2606889999999997
pair_coeff 5 6 0.069 3.2606889999999997
pair_coeff 5 7 0.06434283176858166 3.1894175
pair_coeff 5 8 0.06434283176858166 3.1894175
pair_coeff 6 6 0.069 3.2606889999999997
pair_coeff 6 7 0.06434283176858166 3.1894175
pair_coeff 6 8 0.06434283176858166 3.1894175
pair_coeff 7 7 0.06 3.118146
pair_coeff 7 8 0.06 3.118146
pair_coeff 8 8 0.06 3.118146

# Setup neighbor style
neighbor 1.0 nsq
neigh_modify once no every 1 delay 0 check yes

# Setup minimization style
min_style	     cg
min_modify	     dmax ${dmax} line quadratic
min_modify	     dmax 0.001 line quadratic

# Setup output
thermo		1
thermo_style custom step temp pe press pxx pyy pzz pxy pxz pyz lx ly lz vol
thermo_modify norm no

# Positive deformation

variable delta equal ${up}*${len0}
variable delta equal 0.01*${len0}
variable delta equal 0.01*39.4596368713245
variable deltaxy equal ${up}*xy
variable deltaxy equal 0.01*xy
variable deltaxz equal ${up}*xz
variable deltaxz equal 0.01*xz
variable deltayz equal ${up}*yz
variable deltayz equal 0.01*yz
if "${dir} == 1" then    "change_box all x delta 0 ${delta} xy delta ${deltaxy} xz delta ${deltaxz} remap units box"
if "${dir} == 2" then    "change_box all y delta 0 ${delta} yz delta ${deltayz} remap units box"
change_box all y delta 0 ${delta} yz delta ${deltayz} remap units box
change_box all y delta 0 0.394596368713245 yz delta ${deltayz} remap units box
change_box all y delta 0 0.394596368713245 yz delta -0.0124162198956923 remap units box
Changing box ...
  triclinic box = (-0.00043121516 0.0048660643 -9.7033041e-05) to (37.896208 39.859099 30.158815) with tilt (0.0020704893 0.0037010238 -1.2416220)
  triclinic box = (-0.00043121516 0.0048660643 -9.7033041e-05) to (37.896208 39.859099 30.158815) with tilt (0.0020704893 0.0037010238 -1.2540382)
if "${dir} == 3" then    "change_box all z delta 0 ${delta} remap units box"
if "${dir} == 4" then    "change_box all yz delta ${delta} remap units box"
if "${dir} == 5" then    "change_box all xz delta ${delta} remap units box"
if "${dir} == 6" then    "change_box all xy delta ${delta} remap units box"

# Relax atoms positions

minimize ${etol} ${ftol} ${maxiter} ${maxeval}
minimize 1e-10 ${ftol} ${maxiter} ${maxeval}
minimize 1e-10 1e-10 ${maxiter} ${maxeval}
minimize 1e-10 1e-10 100000 ${maxeval}
minimize 1e-10 1e-10 100000 10000000
Neighbor list info ...
  update every 1 steps, delay 0 steps, check yes
  max neighbors/atom: 2000, page size: 100000
  master list distance cutoff = 13.5
  ghost atom cutoff = 13.5
  1 neighbor lists, perpetual/occasional/extra = 1 0 0
  (1) pair lj/cut, perpetual
      attributes: half, newton on
      pair build: half/nsq/newton
      stencil: none
      bin: none
WARNING: Inconsistent image flags (src/lammps-master/src/domain.cpp:812)
Per MPI rank memory allocation (min/avg/max) = 18.80 | 18.99 | 19.19 Mbytes
Step Temp PotEng Press Pxx Pyy Pzz Pxy Pxz Pyz Lx Ly Lz Volume 
       9            0    10362.433   -9704.4668   -5261.7433   -21331.559   -2520.0982   -1.3381645   -8.1613638   -525.18597    37.896639    39.854233    30.158912    45550.257 
      10            0    10357.391   -9387.9216   -5034.0685   -20501.063   -2628.6336   -1.2760592   -7.8996807   -643.84353    37.896639    39.854233    30.158912    45550.257 
      11            0    10353.269   -9083.2643   -4800.2694   -19729.763   -2719.7601   -1.1802544   -7.7133758   -751.54182    37.896639    39.854233    30.158912    45550.257 
      12            0    10349.732   -8786.4025   -4561.5006   -19001.655   -2796.0518   -1.0606782   -7.6010564   -849.40502    37.896639    39.854233    30.158912    45550.257 
      13            0    10346.585    -8494.258   -4319.2836   -18304.484   -2859.0066  -0.92092752   -7.5528057   -938.27681    37.896639    39.854233    30.158912    45550.257 
      14            0    10343.708   -8204.5094   -4075.6001   -17628.529   -2909.3997  -0.77048343   -7.5621786   -1018.8237    37.896639    39.854233    30.158912    45550.257 
      15            0    10341.026   -7915.4398   -3832.9737   -16965.757   -2947.5885  -0.61462027   -7.6136396    -1091.652    37.896639    39.854233    30.158912    45550.257 
      16            0    10338.484   -7625.7909   -3594.4787   -16309.102   -2973.7924  -0.46048723   -7.7027971   -1157.3085    37.896639    39.854233    30.158912    45550.257 
      17            0    10336.043   -7334.5763   -3363.6829   -15651.736     -2988.31   -0.3127417   -7.8156427   -1216.2552    37.896639    39.854233    30.158912    45550.257 
      18            0    10333.703    -7045.434   -3148.0005   -14996.654   -2991.6476  -0.17784411   -7.9434741    -1267.926    37.896639    39.854233    30.158912    45550.257 
      19            0    10331.443   -6759.2403   -2952.3313   -14340.167   -2985.2229 -0.052170043   -8.0772993   -1312.1959    37.896639    39.854233    30.158912    45550.257 
      20            0    10329.233   -6475.6819   -2780.5363    -13675.66   -2970.8493  0.067002626   -8.2135544   -1348.6348    37.896639    39.854233    30.158912    45550.257 
      21            0    10327.033   -6193.9253   -2636.2525   -12995.045   -2950.4787   0.19424813   -8.3553767   -1376.1402    37.896639    39.854233    30.158912    45550.257 
      22            0    10324.819    -5915.239   -2524.3811   -12294.981   -2926.3546   0.32157543   -8.5057727   -1392.6714    37.896639    39.854233    30.158912    45550.257 
      23            0    10322.801   -5670.5722   -2457.3489   -11650.703   -2903.6651   0.44952571   -8.6532383   -1395.4969    37.896639    39.854233    30.158912    45550.257 
      24            0    10320.957   -5455.0833   -2424.7126   -11056.429   -2884.1081   0.58831817   -8.7971507   -1387.2595    37.896639    39.854233    30.158912    45550.257 
      25            0    10319.296   -5266.2038   -2416.9917   -10513.557   -2868.0625   0.71927937   -8.9367752   -1370.9442    37.896639    39.854233    30.158912    45550.257 
      26            0    10317.783   -5095.9571   -2425.2387   -10008.197   -2854.4355   0.83843403   -9.0748245    -1348.942    37.896639    39.854233    30.158912    45550.257 
      27            0      10316.4   -4938.6197   -2443.0575   -9531.0283   -2841.7735   0.96500115   -9.2111741   -1322.7481    37.896639    39.854233    30.158912    45550.257 
      28            0    10315.127    -4790.176   -2465.8952   -9075.9748   -2828.6581    1.0593314   -9.3301576   -1293.1198    37.896639    39.854233    30.158912    45550.257 
      29            0    10313.954   -4647.6901   -2490.3594   -8639.3208   -2813.3903    1.2060602   -9.4747439   -1260.2303    37.896639    39.854233    30.158912    45550.257 
      30            0    10312.884   -4511.7056   -2514.1878   -8225.2796   -2795.6494    1.1055481   -9.5109743   -1224.4805    37.896639    39.854233    30.158912    45550.257 
      31            0    10311.916   -4380.5237   -2534.0306   -7836.1517   -2771.3889     2.001024    -9.965191   -1185.4283    37.896639    39.854233    30.158912    45550.257 
      32            0    10311.121   -4268.6816   -2555.7368   -7493.7353   -2756.5726    -1.703926   -8.4622422   -1148.3615    37.896639    39.854233    30.158912    45550.257 
      33            0    10310.707   -4198.9833    -2554.225   -7317.9404   -2724.7843    4.4588463   -11.157304   -1122.2591    37.896639    39.854233    30.158912    45550.257 
      34            0    10309.904    -4084.217   -2573.5625   -6975.7658   -2703.3228    1.5585319   -9.9348287   -1081.0641    37.896639    39.854233    30.158912    45550.257 
      35            0    10309.351   -3986.2399   -2575.7596   -6716.4322   -2666.5278    0.8253196     -9.74413   -1032.8647    37.896639    39.854233    30.158912    45550.257 
      36            0    10308.925   -3924.3384   -2585.3522   -6536.7386   -2650.9245    1.3784631   -10.148946   -1011.3453    37.896639    39.854233    30.158912    45550.257 
      37            0    10308.264   -3801.4837   -2583.9842   -6226.6027   -2593.8642    2.3645852   -9.8384162   -949.35319    37.896639    39.854233    30.158912    45550.257 
      38            0    10307.906   -3741.7174   -2591.4415   -6053.4665   -2580.2441   0.84433298   -10.440432    -921.4283    37.896639    39.854233    30.158912    45550.257 
      39            0    10307.271    -3619.567   -2586.6576   -5753.8942   -2518.1494    1.1781982    -10.10411    -853.2882    37.896639    39.854233    30.158912    45550.257 
      40            0    10306.918   -3539.7768   -2582.5621   -5559.9275   -2476.8407    2.2671445   -10.622124   -811.08161    37.896639    39.854233    30.158912    45550.257 
      41            0    10306.386   -3436.6864   -2570.6819   -5323.6135   -2415.7638     2.199956   -10.417065   -744.27506    37.896639    39.854233    30.158912    45550.257 
      42            0    10306.079   -3368.4721   -2569.4881   -5153.4342   -2382.4939     -3.20924   -9.8900304   -692.28997    37.896639    39.854233    30.158912    45550.257 
      43            0    10305.584   -3261.7476   -2543.8693   -4939.4699   -2301.9037 -0.016093203   -10.075322   -620.25521    37.896639    39.854233    30.158912    45550.257 
      44            0     10305.52   -3236.2828   -2532.1514   -4895.8882   -2280.8086    3.7885673   -11.064432   -610.97081    37.896639    39.854233    30.158912    45550.257 
      45            0    10305.157   -3145.4368   -2502.1544   -4722.0911    -2212.065    5.2440295   -11.301083   -545.99686    37.896639    39.854233    30.158912    45550.257 
      46            0    10305.022   -3131.2939   -2509.8354   -4676.7215   -2207.3247   -1.6504929   -10.019626    -523.9212    37.896639    39.854233    30.158912    45550.257 
      47            0    10304.778   -3051.3507   -2492.7373   -4517.5816   -2143.7332   -4.7226239     -8.95804   -460.04679    37.896639    39.854233    30.158912    45550.257 
      48            0    10304.461   -2980.6171     -2459.63   -4395.5709   -2086.6505    2.1271309    -10.35865   -422.33418    37.896639    39.854233    30.158912    45550.257 
      49            0    10304.261   -2911.6001   -2438.5197   -4227.3735   -2068.9072   -1.1901544   -12.168438   -377.43053    37.896639    39.854233    30.158912    45550.257 
      50            0    10304.029    -2836.332   -2413.6191   -4070.1368   -2025.2399   -2.1585839   -12.857511   -326.02879    37.896639    39.854233    30.158912    45550.257 
      51            0    10303.907   -2816.2439    -2404.551   -4064.1992   -1979.9814    1.2579723   -11.324451     -311.074    37.896639    39.854233    30.158912    45550.257 
      52            0    10303.862   -2787.2673   -2397.0006   -4048.8866   -1915.9145    2.8354703   -8.5402552     -293.806    37.896639    39.854233    30.158912    45550.257 
      53            0    10303.682   -2721.4431   -2373.1288   -3944.9894   -1846.2111  -0.71104525   -5.9467255   -252.23158    37.896639    39.854233    30.158912    45550.257 
      54            0    10303.457   -2673.8809   -2347.0858    -3821.573    -1852.984   0.30471456   -9.7554662   -223.39299    37.896639    39.854233    30.158912    45550.257 
      55            0    10303.311   -2629.0098   -2324.2897    -3690.808   -1871.9316    3.3367409    -15.05728   -203.12342    37.896639    39.854233    30.158912    45550.257 
      56            0      10303.2   -2573.6039    -2294.966   -3571.3536    -1854.492    3.4226905   -16.739203    -174.1628    37.896639    39.854233    30.158912    45550.257 
      57            0    10302.932     -2501.73   -2256.6791   -3487.6449   -1760.8661  -0.90829679   -11.733733   -132.54242    37.896639    39.854233    30.158912    45550.257 
      58            0    10302.817   -2424.5796    -2230.367   -3430.6596   -1612.7124  -0.42254763   -6.2916936   -102.48392    37.896639    39.854233    30.158912    45550.257 
      59            0    10302.711   -2365.2036   -2209.5319   -3351.4923   -1534.5866    2.7422432   -5.5528627   -72.955707    37.896639    39.854233    30.158912    45550.257 
      60            0    10302.539   -2360.0339   -2197.1717   -3254.2905   -1628.6396    2.2869346   -11.664426   -51.112891    37.896639    39.854233    30.158912    45550.257 
      61            0    10302.477    -2346.392   -2180.0875   -3177.8418   -1681.2466  -0.55145356   -15.131742   -40.745434    37.896639    39.854233    30.158912    45550.257 
      62            0    10302.351   -2267.4253   -2128.7883   -3107.8857   -1565.6018   -1.6677014   -11.530191   -29.401137    37.896639    39.854233    30.158912    45550.257 
      63            0    10302.227   -2197.0443   -2087.0963   -3063.2116    -1440.825   0.57771768   -7.3874933   -19.721111    37.896639    39.854233    30.158912    45550.257 
      64            0     10302.11    -2166.677   -2074.3977   -3010.9849   -1414.6484    2.7341039     -8.07388   -14.526417    37.896639    39.854233    30.158912    45550.257 
      65            0    10302.016    -2169.281   -2074.2283   -2971.6653   -1461.9493    1.6314667   -11.113793   -3.3992635    37.896639    39.854233    30.158912    45550.257 
      66            0    10301.964   -2168.9377   -2063.5673   -2937.3058     -1505.94  -0.66645822   -13.056464    16.435725    37.896639    39.854233    30.158912    45550.257 
      67            0    10301.874    -2141.882   -2036.7811   -2902.1757   -1486.6891   -2.2410345   -12.002752    23.678842    37.896639    39.854233    30.158912    45550.257 
      68            0    10301.752   -2091.0443   -2002.9041   -2860.7842   -1409.4445  -0.80745084   -10.060066    6.6145772    37.896639    39.854233    30.158912    45550.257 
      69            0    10301.678   -2063.4455   -1982.8142   -2842.1836   -1365.3387    2.0109308   -9.9638438   -10.647658    37.896639    39.854233    30.158912    45550.257 
      70            0    10301.642   -2060.6626   -1970.9456   -2838.5062   -1372.5359    2.1119249   -10.391175   -20.838385    37.896639    39.854233    30.158912    45550.257 
      71            0    10301.576   -2077.3522   -1970.3169   -2840.5363   -1421.2034  -0.90939763   -11.033096   -24.586994    37.896639    39.854233    30.158912    45550.257 
      72            0    10301.471   -2069.7434   -1963.0162   -2825.7718   -1420.4421   -1.7190387   -11.069912   -22.499104    37.896639    39.854233    30.158912    45550.257 
      73            0    10301.388   -2031.6401   -1932.2276    -2797.514   -1365.1788   0.61858852   -10.508534   -31.276201    37.896639    39.854233    30.158912    45550.257 
      74            0    10301.319   -1984.1219    -1880.222   -2753.3735   -1318.7702    2.6241901   -9.9269143   -73.878506    37.896639    39.854233    30.158912    45550.257 
      75            0    10301.227   -1989.7213   -1866.7117   -2748.4303   -1354.0219    2.4558369   -9.7371923   -105.30251    37.896639    39.854233    30.158912    45550.257 
      76            0    10301.131   -2013.0743   -1868.1389   -2768.9171   -1402.1668    1.3788282   -9.6288618   -111.39646    37.896639    39.854233    30.158912    45550.257 
      77            0     10301.09   -2002.8963   -1861.6626   -2765.2903   -1381.7359   0.47292293   -9.9164283   -104.24728    37.896639    39.854233    30.158912    45550.257 
      78            0    10301.079   -1992.8457   -1861.4057   -2754.2681   -1362.8633  -0.23755869   -10.579526   -99.746595    37.896639    39.854233    30.158912    45550.257 
      79            0    10301.062   -1993.6097   -1868.2615   -2748.0198   -1364.5478     1.209967   -10.898189   -96.773592    37.896639    39.854233    30.158912    45550.257 
      80            0    10301.027   -1999.2735   -1860.6567   -2749.8063   -1387.3575    3.8292948   -9.9846696   -98.706157    37.896639    39.854233    30.158912    45550.257 
      81            0    10300.953   -1996.1966   -1832.8454   -2745.6643   -1410.0801    2.3292581   -8.9872265   -113.15629    37.896639    39.854233    30.158912    45550.257 
      82            0    10300.927   -1989.5148   -1829.0924   -2737.4027   -1402.0493  0.014750557   -9.7245161   -119.44074    37.896639    39.854233    30.158912    45550.257 
      83            0     10300.92   -1984.2068   -1831.4264   -2732.2107   -1388.9834 -0.063826352   -10.592093   -121.22173    37.896639    39.854233    30.158912    45550.257 
      84            0    10300.911   -1988.4795   -1844.1216   -2731.3649   -1389.9521    2.5101579   -10.839105     -121.446    37.896639    39.854233    30.158912    45550.257 
      85            0    10300.879   -2001.5381   -1859.3721   -2720.6055   -1424.6367     2.987432   -9.4737043   -130.67191    37.896639    39.854233    30.158912    45550.257 
      86            0    10300.821   -2001.1562    -1849.887   -2703.9569   -1449.6247   0.22795501   -8.3202225   -136.25816    37.896639    39.854233    30.158912    45550.257 
      87            0    10300.792   -1986.7575   -1832.2034   -2698.9012   -1429.1678   0.79046542   -9.8711618   -127.77547    37.896639    39.854233    30.158912    45550.257 
      88            0    10300.784   -1976.7992   -1818.7143   -2692.8035   -1418.8798   0.87736571   -10.753765   -124.20025    37.896639    39.854233    30.158912    45550.257 
      89            0    10300.775    -1967.257   -1799.3757   -2683.7525   -1418.6428   0.40114306   -10.000431   -123.98627    37.896639    39.854233    30.158912    45550.257 
      90            0    10300.766   -1962.3006   -1789.9717   -2680.3049   -1416.6253   0.56965145   -9.5546439   -124.30054    37.896639    39.854233    30.158912    45550.257 
      91            0    10300.718   -1961.1639   -1794.1379   -2678.5101   -1410.8439    0.7446947   -10.509754   -135.50712    37.896639    39.854233    30.158912    45550.257 
      92            0    10300.674   -1960.9127   -1792.3298   -2674.8798   -1415.5286  -0.64926158   -10.501859   -138.48255    37.896639    39.854233    30.158912    45550.257 
      93            0    10300.631   -1955.5919   -1779.5374   -2669.1146   -1418.1236  -0.52036501   -10.212595   -129.42303    37.896639    39.854233    30.158912    45550.257 
      94            0    10300.584   -1948.3604    -1764.655   -2662.9376   -1417.4887    1.6682932   -10.284145   -116.35545    37.896639    39.854233    30.158912    45550.257 
      95            0    10300.558   -1942.2596   -1745.9901   -2647.8695   -1432.9192    1.9367825   -10.262593   -111.03161    37.896639    39.854233    30.158912    45550.257 
      96            0    10300.515   -1934.8128   -1722.1885    -2627.633   -1454.6169   -1.0287859    -9.399313   -114.95708    37.896639    39.854233    30.158912    45550.257 
      97            0    10300.472   -1921.0128     -1703.49   -2611.2237   -1448.3246   -1.6710598    -8.822961    -116.1122    37.896639    39.854233    30.158912    45550.257 
      98            0    10300.416   -1907.0836   -1699.3197    -2592.065    -1429.866    1.4326205   -9.6955105    -116.1414    37.896639    39.854233    30.158912    45550.257 
      99            0     10300.39   -1911.5029   -1707.5161    -2585.519   -1441.4734    1.6126468   -10.186202   -121.06697    37.896639    39.854233    30.158912    45550.257 
     100            0    10300.376   -1926.9949   -1720.9432   -2585.3963   -1474.6453 -0.018226601   -10.111317   -126.41912    37.896639    39.854233    30.158912    45550.257 
     101            0    10300.365   -1927.5279   -1720.0616   -2587.0719   -1475.4501 -0.045502886   -9.9944488   -123.02469    37.896639    39.854233    30.158912    45550.257 
     102            0     10300.35    -1906.265   -1699.9322    -2579.335   -1439.5279    1.3922335   -10.123875   -114.30531    37.896639    39.854233    30.158912    45550.257 
     103            0    10300.336   -1880.2335   -1671.4801   -2559.6009   -1409.6196    1.3358176   -10.147082   -114.38924    37.896639    39.854233    30.158912    45550.257 
     104            0    10300.315   -1853.8227   -1636.8671   -2532.0243   -1392.5767  0.067918261   -10.100429   -115.77789    37.896639    39.854233    30.158912    45550.257 
     105            0    10300.291   -1852.4358   -1635.0482   -2517.4325   -1404.8268  -0.41826032   -10.090124    -113.0236    37.896639    39.854233    30.158912    45550.257 
     106            0    10300.253   -1857.1074   -1650.9388   -2496.0422   -1424.3412    0.1228166   -9.3883743   -113.20463    37.896639    39.854233    30.158912    45550.257 
     107            0    10300.201   -1845.8828   -1645.9462   -2468.0051   -1423.6972    1.1998251   -8.7969347   -112.92364    37.896639    39.854233    30.158912    45550.257 
     108            0    10300.178   -1833.1221   -1625.9564   -2461.5284   -1411.8815    1.3073485   -9.6917908   -108.65363    37.896639    39.854233    30.158912    45550.257 
     109            0    10300.167   -1820.5972   -1605.9967   -2456.7026   -1399.0923   0.86512319   -10.516657    -104.3766    37.896639    39.854233    30.158912    45550.257 
     110            0    10300.158      -1816.2    -1597.909   -2456.6639   -1394.0272    0.4357629   -10.171439   -101.14308    37.896639    39.854233    30.158912    45550.257 
     111            0    10300.153   -1814.7109   -1592.5526   -2457.4969    -1394.083   0.35482286   -9.9072497    -98.91753    37.896639    39.854233    30.158912    45550.257 
     112            0    10300.148   -1817.6754   -1596.5903   -2454.9774   -1401.4586   0.72603209   -10.124922   -103.27633    37.896639    39.854233    30.158912    45550.257 
     113            0    10300.138   -1825.3992   -1611.4566   -2452.6567   -1412.0842    1.1691244   -10.026729   -110.35224    37.896639    39.854233    30.158912    45550.257 
     114            0    10300.127   -1827.4295   -1612.6239   -2456.5817    -1413.083    0.6237528   -9.6380216   -104.40629    37.896639    39.854233    30.158912    45550.257 
     115            0    10300.108   -1813.9574   -1585.1461   -2455.0968   -1401.6292  -0.65831638    -9.710024    -87.89858    37.896639    39.854233    30.158912    45550.257 
     116            0     10300.08    -1770.919   -1526.5335   -2425.5308   -1360.6928   0.18818765   -10.008576   -76.945423    37.896639    39.854233    30.158912    45550.257 
     117            0    10300.049   -1738.3619   -1489.6433   -2399.0897   -1326.3527    1.8793383   -9.5542601   -65.285477    37.896639    39.854233    30.158912    45550.257 
     118            0    10300.012   -1731.8538   -1485.6723    -2382.512   -1327.3772    1.8452579   -9.3675376   -51.414194    37.896639    39.854233    30.158912    45550.257 
     119            0    10299.972    -1719.471   -1475.5766   -2352.7885   -1330.0478   0.62658843   -10.118626   -49.961074    37.896639    39.854233    30.158912    45550.257 
     120            0    10299.954    -1703.297   -1464.2539   -2327.3365   -1318.3008   0.07507336   -10.568891   -54.269789    37.896639    39.854233    30.158912    45550.257 
     121            0    10299.934   -1683.0529   -1454.1748     -2296.36   -1298.6239   0.23553379    -10.57703   -59.234995    37.896639    39.854233    30.158912    45550.257 
     122            0    10299.922   -1664.0377    -1437.278   -2271.8755   -1282.9595   0.82485763   -10.023966   -58.771292    37.896639    39.854233    30.158912    45550.257 
     123            0    10299.905   -1632.2283   -1399.1547    -2239.326   -1258.2042    1.1814734   -8.8676053   -49.730762    37.896639    39.854233    30.158912    45550.257 
     124            0    10299.899   -1624.7087    -1391.777    -2224.602   -1257.7471   0.40772546   -9.2018503   -45.860943    37.896639    39.854233    30.158912    45550.257 
     125            0    10299.892   -1628.9495   -1404.3227   -2205.3933   -1277.1325  -0.25898714   -10.665901    -47.94734    37.896639    39.854233    30.158912    45550.257 
     126            0    10299.888   -1631.6861   -1414.1999   -2195.1848   -1285.6736   0.84877378   -10.632839   -52.447724    37.896639    39.854233    30.158912    45550.257 
     127            0    10299.886   -1630.0545   -1416.8597   -2190.1289   -1283.1749    1.6515914   -9.4641742   -54.983548    37.896639    39.854233    30.158912    45550.257 
     128            0    10299.884   -1626.8555   -1413.3712   -2186.6572    -1280.538   0.94489896   -8.9795294   -55.378972    37.896639    39.854233    30.158912    45550.257 
     129            0    10299.881   -1621.3223   -1402.1991   -2181.4894   -1280.2786  0.084326877   -10.033991   -55.552109    37.896639    39.854233    30.158912    45550.257 
     130            0    10299.879    -1615.146   -1390.2979   -2176.9689   -1278.1711   0.22694682   -10.885507   -55.586711    37.896639    39.854233    30.158912    45550.257 
     131            0    10299.877    -1612.517   -1386.9898   -2173.4427   -1277.1185    1.0422669   -9.8514072   -55.800908    37.896639    39.854233    30.158912    45550.257 
     132            0    10299.872   -1615.4664   -1393.3642   -2170.9581   -1282.0768    1.4178202   -8.5547141   -56.740698    37.896639    39.854233    30.158912    45550.257 
     133            0    10299.866   -1619.9068   -1401.6177   -2171.3811   -1286.7216    0.7525213   -9.3258469   -58.687765    37.896639    39.854233    30.158912    45550.257 
     134            0     10299.86   -1617.9208   -1398.6749    -2169.845   -1285.2424  -0.15513356   -10.781606    -62.54834    37.896639    39.854233    30.158912    45550.257 
     135            0    10299.853   -1610.9045   -1382.9507   -2164.5102   -1285.2526  0.056665982   -10.495597   -65.491379    37.896639    39.854233    30.158912    45550.257 
     136            0    10299.845    -1605.355   -1365.4443   -2162.5704   -1288.0502     1.348782   -8.9316734   -62.502734    37.896639    39.854233    30.158912    45550.257 
     137            0    10299.841   -1603.2677   -1358.0877   -2163.4832   -1288.2321    1.5385651   -8.8301776   -58.300963    37.896639    39.854233    30.158912    45550.257 
     138            0    10299.836   -1601.2159   -1353.5097   -2160.5091   -1289.6288   0.57480333    -10.19373   -56.780501    37.896639    39.854233    30.158912    45550.257 
     139            0    10299.833   -1601.5739   -1353.9053   -2158.1883   -1292.6281   0.22133908    -10.72473   -57.302549    37.896639    39.854233    30.158912    45550.257 
     140            0    10299.832   -1605.4913   -1360.5775   -2159.7694   -1296.1272   0.70337974   -9.9456811   -58.132886    37.896639    39.854233    30.158912    45550.257 
     141            0     10299.83   -1608.6225   -1366.4007   -2160.2811   -1299.1859    1.0877255   -9.2086361    -60.26296    37.896639    39.854233    30.158912    45550.257 
     142            0    10299.828   -1605.0425    -1360.969    -2155.657   -1298.5015   0.75605509   -9.5553829   -62.308223    37.896639    39.854233    30.158912    45550.257 
     143            0    10299.826    -1598.825   -1350.8048   -2150.7128   -1294.9576   0.30297089   -9.9898501   -61.603401    37.896639    39.854233    30.158912    45550.257 
     144            0    10299.825   -1594.1993   -1343.6619   -2146.2369   -1292.6991   0.41941931   -9.7884333   -57.921966    37.896639    39.854233    30.158912    45550.257 
     145            0    10299.823   -1591.5084    -1341.518   -2140.3668   -1292.6404   0.95831627   -9.6637428   -56.266625    37.896639    39.854233    30.158912    45550.257 
     146            0    10299.821    -1589.536   -1344.3658   -2133.9278   -1290.3144     1.254415   -9.9380658   -57.114941    37.896639    39.854233    30.158912    45550.257 
     147            0    10299.818   -1589.0959    -1351.029   -2128.9508   -1287.3079   0.77959869    -10.01068   -56.613812    37.896639    39.854233    30.158912    45550.257 
     148            0    10299.815   -1589.7903   -1356.0694   -2124.8719   -1288.4294   0.31366843   -9.8110504   -54.182803    37.896639    39.854233    30.158912    45550.257 
     149            0    10299.812   -1586.1485   -1351.5189   -2119.9289   -1286.9978   0.70338792   -9.7154748   -50.598015    37.896639    39.854233    30.158912    45550.257 
     150            0    10299.809   -1577.2384    -1339.376   -2114.0454   -1278.2938    1.0489593    -9.692638   -46.634568    37.896639    39.854233    30.158912    45550.257 
     151            0    10299.805   -1566.3527   -1327.3154   -2103.7552   -1267.9875   0.74353692   -9.8106468   -42.497237    37.896639    39.854233    30.158912    45550.257 
     152            0    10299.802   -1562.2506   -1325.9309   -2097.5493   -1263.2715   0.44370008   -9.9867896   -40.479603    37.896639    39.854233    30.158912    45550.257 
     153            0    10299.799   -1559.9663   -1327.9459   -2094.7764   -1257.1765    0.4307301   -9.8051259   -37.981085    37.896639    39.854233    30.158912    45550.257 
     154            0    10299.796    -1560.932   -1331.5082   -2093.5758   -1257.7121   0.77914864   -9.4602185   -35.887994    37.896639    39.854233    30.158912    45550.257 
     155            0    10299.794   -1563.3471   -1333.7591   -2091.9078   -1264.3743    1.1535939   -9.5891336   -33.034628    37.896639    39.854233    30.158912    45550.257 
     156            0    10299.792   -1562.5457   -1330.4332   -2091.8777   -1265.3263   0.99063809   -9.8666002     -29.2266    37.896639    39.854233    30.158912    45550.257 
     157            0     10299.79   -1556.3025   -1319.3892   -2091.4561   -1258.0622   0.39925877   -9.9468515   -24.678671    37.896639    39.854233    30.158912    45550.257 
     158            0    10299.789   -1550.8757   -1310.7208   -2088.1314    -1253.775   0.43980089   -10.008589   -22.609661    37.896639    39.854233    30.158912    45550.257 
     159            0    10299.787    -1548.696   -1308.5296   -2083.8339   -1253.7246   0.93199083   -9.9650319   -22.623724    37.896639    39.854233    30.158912    45550.257 
     160            0    10299.787   -1548.2946    -1310.058   -2081.4464   -1253.3793   0.75573791   -9.5593111   -22.878244    37.896639    39.854233    30.158912    45550.257 
     161            0    10299.784   -1548.6504    -1312.174    -2079.057   -1254.7203   0.47859619   -9.3576885   -22.068714    37.896639    39.854233    30.158912    45550.257 
     162            0    10299.782   -1547.6685   -1310.7785   -2076.4359    -1255.791   0.86389607      -9.6947   -18.817741    37.896639    39.854233    30.158912    45550.257 
     163            0    10299.781   -1544.5954    -1305.523   -2075.7176   -1252.5456   0.82099441   -9.8083894   -15.138196    37.896639    39.854233    30.158912    45550.257 
     164            0     10299.78   -1539.8598   -1297.8687   -2074.0154   -1247.6954   0.46716751   -9.6595676   -13.546334    37.896639    39.854233    30.158912    45550.257 
     165            0    10299.779   -1536.3487   -1292.6671   -2071.2085   -1245.1706   0.79967564   -9.8394736   -13.738282    37.896639    39.854233    30.158912    45550.257 
     166            0    10299.778    -1533.996   -1289.9725   -2068.8767    -1243.139   0.99463593   -10.071746    -13.14243    37.896639    39.854233    30.158912    45550.257 
     167            0    10299.777   -1534.7865   -1292.3164    -2067.949   -1244.0942   0.49155962   -9.8791551   -13.056235    37.896639    39.854233    30.158912    45550.257 
     168            0    10299.775   -1537.6565   -1297.7372   -2067.7779   -1247.4545   0.35198552   -9.5716089   -13.900543    37.896639    39.854233    30.158912    45550.257 
     169            0    10299.774   -1538.9539   -1299.6577    -2069.166   -1248.0379   0.92241646     -9.60296   -13.395168    37.896639    39.854233    30.158912    45550.257 
     170            0    10299.774   -1538.8184   -1298.5033   -2071.2844   -1246.6677    1.2039621   -9.7357105   -11.637824    37.896639    39.854233    30.158912    45550.257 
     171            0    10299.774   -1538.8184   -1298.5033   -2071.2844   -1246.6677    1.2039621   -9.7357105   -11.637824    37.896639    39.854233    30.158912    45550.257 
Loop time of 1.83969 on 8 procs for 162 steps with 3712 atoms

99.5% CPU use with 8 MPI tasks x 1 OpenMP threads

Minimization stats:
  Stopping criterion = linesearch alpha is zero
  Energy initial, next-to-last, final = 
      10362.4329906884   10299.7736278416   10299.7736278416
  Force two-norm initial, final = 252.22806 2.0451675
  Force max component initial, final = 11.694989 0.14645599
  Final line search alpha, max atom move = 1.6400456e-09 2.4019449e-10
  Iterations, force evaluations = 162 308

MPI task timing breakdown:
Section |  min time  |  avg time  |  max time  |%varavg| %total
---------------------------------------------------------------
Pair    | 0.98518    | 1.3438     | 1.6949     |  21.1 | 73.05
Bond    | 0.064921   | 0.066798   | 0.068383   |   0.5 |  3.63
Neigh   | 0          | 0          | 0          |   0.0 |  0.00
Comm    | 0.044417   | 0.3963     | 0.75585    |  39.0 | 21.54
Output  | 0.0058188  | 0.0077371  | 0.019545   |   5.1 |  0.42
Modify  | 0          | 0          | 0          |   0.0 |  0.00
Other   |            | 0.02503    |            |       |  1.36

Nlocal:        464.000 ave         464 max         464 min
Histogram: 8 0 0 0 0 0 0 0 0 0
Nghost:        7081.00 ave        7082 max        7080 min
Histogram: 4 0 0 0 0 0 0 0 0 4
Neighs:        193815.0 ave      246279 max      141356 min
Histogram: 1 1 1 1 0 0 1 1 1 1

Total # of neighbors = 1550522
Ave neighs/atom = 417.70528
Ave special neighs/atom = 13.034483
Neighbor list builds = 0
Dangerous builds = 0

# Obtain new stress tensor

variable tmp equal pe
variable e1 equal ${tmp}
variable e1 equal 10299.7736278416
variable tmp equal press
variable p1 equal ${tmp}
variable p1 equal -1538.81843688944
variable tmp equal pxx
variable pxx1 equal ${tmp}
variable pxx1 equal -1298.50325413983
variable tmp equal pyy
variable pyy1 equal ${tmp}
variable pyy1 equal -2071.28439133045
variable tmp equal pzz
variable pzz1 equal ${tmp}
variable pzz1 equal -1246.66766519803
variable tmp equal pxy
variable pxy1 equal ${tmp}
variable pxy1 equal 1.20396212555747
variable tmp equal pxz
variable pxz1 equal ${tmp}
variable pxz1 equal -9.73571054533662
variable tmp equal pyz
variable pyz1 equal ${tmp}
variable pyz1 equal -11.6378236331539

# Compute elastic constant from pressure tensor

variable C1pos equal ${d1}
variable C1pos equal 13.1842680135484
variable C2pos equal ${d2}
variable C2pos equal 21.0022512090512
variable C3pos equal ${d3}
variable C3pos equal 12.6692861766639
variable C4pos equal ${d4}
variable C4pos equal 0.450993868661674
variable C5pos equal ${d5}
variable C5pos equal 0.0129172292654204
variable C6pos equal ${d6}
variable C6pos equal -0.0193290377609454

# Combine positive and negative

variable C1${dir} equal 0.5*(${C1neg}+${C1pos})
variable C12 equal 0.5*(${C1neg}+${C1pos})
variable C12 equal 0.5*(11.9749728566387+${C1pos})
variable C12 equal 0.5*(11.9749728566387+13.1842680135484)
variable C2${dir} equal 0.5*(${C2neg}+${C2pos})
variable C22 equal 0.5*(${C2neg}+${C2pos})
variable C22 equal 0.5*(16.0586249369957+${C2pos})
variable C22 equal 0.5*(16.0586249369957+21.0022512090512)
variable C3${dir} equal 0.5*(${C3neg}+${C3pos})
variable C32 equal 0.5*(${C3neg}+${C3pos})
variable C32 equal 0.5*(14.6998474657551+${C3pos})
variable C32 equal 0.5*(14.6998474657551+12.6692861766639)
variable C4${dir} equal 0.5*(${C4neg}+${C4pos})
variable C42 equal 0.5*(${C4neg}+${C4pos})
variable C42 equal 0.5*(-1.10970845930074+${C4pos})
variable C42 equal 0.5*(-1.10970845930074+0.450993868661674)
variable C5${dir} equal 0.5*(${C5neg}+${C5pos})
variable C52 equal 0.5*(${C5neg}+${C5pos})
variable C52 equal 0.5*(-0.0171575283786685+${C5pos})
variable C52 equal 0.5*(-0.0171575283786685+0.0129172292654204)
variable C6${dir} equal 0.5*(${C6neg}+${C6pos})
variable C62 equal 0.5*(${C6neg}+${C6pos})
variable C62 equal 0.5*(0.0164292150503789+${C6pos})
variable C62 equal 0.5*(0.0164292150503789+-0.0193290377609454)

# Delete dir to make sure it is not reused

variable dir delete

# uzz Perturbation

variable dir equal 3
include displace.mod
# NOTE: This script should not need to be
# modified. See in.elastic for more info.
#
# Find which reference length to use

if "${dir} == 1" then    "variable len0 equal ${lx0}"
if "${dir} == 2" then    "variable len0 equal ${ly0}"
if "${dir} == 3" then    "variable len0 equal ${lz0}"
variable len0 equal ${lz0}
variable len0 equal 30.1589120660827
if "${dir} == 4" then    "variable len0 equal ${lz0}"
if "${dir} == 5" then    "variable len0 equal ${lz0}"
if "${dir} == 6" then    "variable len0 equal ${ly0}"

# Reset box and simulation parameters

clear
OMP_NUM_THREADS environment is not set. Defaulting to 1 thread. (src/lammps-master/src/comm.cpp:94)
  using 1 OpenMP thread(s) per MPI task
box tilt large
read_restart restart.equil
Reading restart file ...
  restart file = 30 Nov 2020, LAMMPS = 30 Nov 2020
  restoring atom style full from restart
  triclinic box = (-0.00043121516 0.0048660643 -9.7033041e-05) to (37.896208 39.464503 30.158815) with tilt (0.0020704893 0.0037010238 -1.2416220)
  2 by 2 by 2 MPI processor grid
  restoring pair style lj/cut from restart
  restoring bond style harmonic from restart
  restoring angle style hybrid from restart
  restoring dihedral style harmonic from restart
  restoring improper style fourier from restart
  3712 atoms
  4096 bonds
  7808 angles
  9856 dihedrals
  3072 impropers
Finding 1-2 1-3 1-4 neighbors ...
  special bond factors lj:    0        0        1       
  special bond factors coul:  0        0        0       
     4 = max # of 1-2 neighbors
     8 = max # of 1-3 neighbors
    21 = max # of 1-4 neighbors
    25 = max # of special neighbors
  special bonds CPU = 0.001 seconds
  read_restart CPU = 0.004 seconds
include potential.mod
pair_style      lj/cut 12.5
bond_style      harmonic
angle_style     hybrid cosine/periodic fourier
dihedral_style  harmonic
improper_style  fourier


special_bonds   lj 0.0 0.0 1.0
pair_modify     tail yes mix arithmetic
include data.pair
bond_coeff     1      154.048673        1.928536  # Zn3f2 N_R
bond_coeff     2      122.127512        2.014866  # Zn3f2 O_2
bond_coeff     3      153.811316        1.929528  # Zn3f2 N_3
bond_coeff     4      527.945261        1.044419  # H_ N_3
bond_coeff     5      357.440381        1.081418  # H_ C_R
bond_coeff     6      331.069389        1.109401  # H_ C_3
bond_coeff     7      529.459447        1.043423  # H_ N_R
bond_coeff     8      663.718927        1.345073  # C_R N_R
bond_coeff     9      462.655054        1.379256  # C_R C_R
bond_coeff    10      369.943935        1.486000  # C_R C_3
bond_coeff    11      714.557442        1.269010  # C_R O_2
bond_coeff    12      646.680887        1.311940  # C_R O_R
bond_coeff    13      349.795899        1.514000  # C_3 C_3
bond_coeff    14      529.724731        1.450075  # C_3 N_R
bond_coeff    15      528.634538        1.451071  # C_3 N_3
angle_coeff     1                      fourier      183.483089        0.343737        0.374972        0.281246 # N_R Zn3f2 N_R
angle_coeff     2                      fourier      155.087435        0.343737        0.374972        0.281246 # N_R Zn3f2 O_2
angle_coeff     3                      fourier      183.341639        0.343737        0.374972        0.281246 # N_R Zn3f2 N_3
angle_coeff     4                      fourier      154.973760        0.343737        0.374972        0.281246 # O_2 Zn3f2 N_3
angle_coeff     5              cosine/periodic      159.573934              -1               3 # H_ C_R N_R
angle_coeff     6              cosine/periodic      424.885146              -1               3 # N_R C_R N_R
angle_coeff     7              cosine/periodic      114.578032              -1               3 # H_ C_R C_R
angle_coeff     8              cosine/periodic      307.398705              -1               3 # C_R C_R N_R
angle_coeff     9              cosine/periodic      198.274298              -1               3 # C_R C_R C_3
angle_coeff    10              cosine/periodic      273.097456              -1               3 # C_3 C_R N_R
angle_coeff    11              cosine/periodic      393.120049              -1               3 # O_2 C_R O_R
angle_coeff    12              cosine/periodic      266.629989              -1               3 # O_2 C_R C_3
angle_coeff    13              cosine/periodic      255.317313              -1               3 # O_R C_R C_3
angle_coeff    14                      fourier      117.318683        0.343737        0.374972        0.281246 # H_ C_3 C_3
angle_coeff    15                      fourier      170.007371        0.343737        0.374972        0.281246 # H_ C_3 N_R
angle_coeff    16                      fourier      121.777217        0.343737        0.374972        0.281246 # H_ C_3 C_R
angle_coeff    17                      fourier      303.594562        0.343737        0.374972        0.281246 # C_3 C_3 N_R
angle_coeff    18                      fourier      220.229931        0.343737        0.374972        0.281246 # C_3 C_3 C_R
angle_coeff    19                      fourier      312.548166        0.343737        0.374972        0.281246 # N_R C_3 C_R
angle_coeff    20                      fourier       75.498766        0.343737        0.374972        0.281246 # H_ C_3 H_
angle_coeff    21                      fourier      169.780468        0.343737        0.374972        0.281246 # H_ C_3 N_3
angle_coeff    22                      fourier      303.297032        0.343737        0.374972        0.281246 # C_3 C_3 N_3
angle_coeff    23              cosine/periodic      398.603153              -1               3 # N_R C_R O_R
angle_coeff    24                      fourier       51.536168        0.317506        0.313225        0.272502 # Zn3f2 N_3 H_
angle_coeff    25                      fourier      108.360206        0.317506        0.313225        0.272502 # Zn3f2 N_3 C_3
angle_coeff    26                      fourier       97.017167        0.317506        0.313225        0.272502 # H_ N_3 H_
angle_coeff    27                      fourier      144.695053        0.317506        0.313225        0.272502 # H_ N_3 C_3
angle_coeff    28              cosine/periodic       87.429320              -1               3 # Zn3f2 N_R C_R
angle_coeff    29              cosine/periodic      240.001032              -1               3 # C_R N_R C_R
angle_coeff    30              cosine/periodic      108.417222              -1               3 # H_ N_R C_3
angle_coeff    31              cosine/periodic      125.071223              -1               3 # H_ N_R C_R
angle_coeff    32              cosine/periodic      213.564697              -1               3 # C_3 N_R C_R
angle_coeff    33              cosine/periodic       84.412329              -1               3 # Zn3f2 O_2 C_R
dihedral_coeff     1        1.497136              -1               2 # H_ C_R N_R Zn3f2
dihedral_coeff     2        0.083333               1               3 # C_R C_R C_3 C_3
dihedral_coeff     3        2.245703              -1               2 # O_R C_R O_2 Zn3f2
dihedral_coeff     4        0.066219               1               3 # H_ C_3 C_3 C_R
dihedral_coeff     5        0.416667              -1               2 # H_ C_3 N_R H_
dihedral_coeff     6        0.030516               1               3 # H_ C_3 N_3 Zn3f2
improper_coeff     1        2.000000        1.000000       -1.000000        0.000000               0 # H_ C_R N_R N_R
pair_coeff 1 1 0.124 2.461553
pair_coeff 1 2 0.07386474125047755 2.5163434999999996
pair_coeff 1 3 0.11410521460476729 2.946202
pair_coeff 1 4 0.11410521460476729 2.946202
pair_coeff 1 5 0.09249864863877742 2.861121
pair_coeff 1 6 0.09249864863877742 2.861121
pair_coeff 1 7 0.08625543461139129 2.7898495
pair_coeff 1 8 0.08625543461139129 2.7898495
pair_coeff 2 2 0.044 2.571134
pair_coeff 2 3 0.0679705818718657 3.0009924999999997
pair_coeff 2 4 0.0679705818718657 3.0009924999999997
pair_coeff 2 5 0.05509990925582364 2.9159115
pair_coeff 2 6 0.05509990925582364 2.9159115
pair_coeff 2 7 0.05138093031466051 2.84464
pair_coeff 2 8 0.05138093031466051 2.84464
pair_coeff 3 3 0.105 3.430851
pair_coeff 3 4 0.105 3.430851
pair_coeff 3 5 0.08511756575466665 3.34577
pair_coeff 3 6 0.08511756575466665 3.34577
pair_coeff 3 7 0.07937253933193772 3.2744985
pair_coeff 3 8 0.07937253933193772 3.2744985
pair_coeff 4 4 0.105 3.430851
pair_coeff 4 5 0.08511756575466665 3.34577
pair_coeff 4 6 0.08511756575466665 3.34577
pair_coeff 4 7 0.07937253933193772 3.2744985
pair_coeff 4 8 0.07937253933193772 3.2744985
pair_coeff 5 5 0.069 3.2606889999999997
pair_coeff 5 6 0.069 3.2606889999999997
pair_coeff 5 7 0.06434283176858166 3.1894175
pair_coeff 5 8 0.06434283176858166 3.1894175
pair_coeff 6 6 0.069 3.2606889999999997
pair_coeff 6 7 0.06434283176858166 3.1894175
pair_coeff 6 8 0.06434283176858166 3.1894175
pair_coeff 7 7 0.06 3.118146
pair_coeff 7 8 0.06 3.118146
pair_coeff 8 8 0.06 3.118146

# Setup neighbor style
neighbor 1.0 nsq
neigh_modify once no every 1 delay 0 check yes

# Setup minimization style
min_style	     cg
min_modify	     dmax ${dmax} line quadratic
min_modify	     dmax 0.001 line quadratic

# Setup output
thermo		1
thermo_style custom step temp pe press pxx pyy pzz pxy pxz pyz lx ly lz vol
thermo_modify norm no

# Negative deformation

variable delta equal -${up}*${len0}
variable delta equal -0.01*${len0}
variable delta equal -0.01*30.1589120660827
variable deltaxy equal -${up}*xy
variable deltaxy equal -0.01*xy
variable deltaxz equal -${up}*xz
variable deltaxz equal -0.01*xz
variable deltayz equal -${up}*yz
variable deltayz equal -0.01*yz
if "${dir} == 1" then    "change_box all x delta 0 ${delta} xy delta ${deltaxy} xz delta ${deltaxz} remap units box"
if "${dir} == 2" then    "change_box all y delta 0 ${delta} yz delta ${deltayz} remap units box"
if "${dir} == 3" then    "change_box all z delta 0 ${delta} remap units box"
change_box all z delta 0 ${delta} remap units box
change_box all z delta 0 -0.301589120660827 remap units box
Changing box ...
  triclinic box = (-0.00043121516 0.0048660643 -9.7033041e-05) to (37.896208 39.464503 29.857226) with tilt (0.0020704893 0.0037010238 -1.2416220)
if "${dir} == 4" then    "change_box all yz delta ${delta} remap units box"
if "${dir} == 5" then    "change_box all xz delta ${delta} remap units box"
if "${dir} == 6" then    "change_box all xy delta ${delta} remap units box"

# Relax atoms positions

minimize ${etol} ${ftol} ${maxiter} ${maxeval}
minimize 1e-10 ${ftol} ${maxiter} ${maxeval}
minimize 1e-10 1e-10 ${maxiter} ${maxeval}
minimize 1e-10 1e-10 100000 ${maxeval}
minimize 1e-10 1e-10 100000 10000000
Neighbor list info ...
  update every 1 steps, delay 0 steps, check yes
  max neighbors/atom: 2000, page size: 100000
  master list distance cutoff = 13.5
  ghost atom cutoff = 13.5
  1 neighbor lists, perpetual/occasional/extra = 1 0 0
  (1) pair lj/cut, perpetual
      attributes: half, newton on
      pair build: half/nsq/newton
      stencil: none
      bin: none
WARNING: Inconsistent image flags (src/lammps-master/src/domain.cpp:812)
Per MPI rank memory allocation (min/avg/max) = 18.82 | 19.01 | 19.20 Mbytes
Step Temp PotEng Press Pxx Pyy Pzz Pxy Pxz Pyz Lx Ly Lz Volume 
       9            0    10403.168    13356.144    3625.7165    2646.9987    33795.718  -0.97479402   -8.2251514   -1725.9531    37.896639    39.459637    29.857323    44648.271 
      10            0    10393.755    12858.271     3553.761    2752.4036    32268.648  -0.93979048   -7.9443895   -1618.9035    37.896639    39.459637    29.857323    44648.271 
      11            0    10385.189    12335.145    3471.6546    2851.6556    30682.124  -0.87326012   -7.6999746   -1502.5454    37.896639    39.459637    29.857323    44648.271 
      12            0    10377.585    11807.898     3377.732    2938.3919    29107.571  -0.77151505   -7.5201917   -1383.8371    37.896639    39.459637    29.857323    44648.271 
      13            0    10370.861    11288.672    3269.6911    3009.4176    27586.907  -0.64525571   -7.4184541   -1268.9081    37.896639    39.459637    29.857323    44648.271 
      14            0    10365.281    10819.473    3155.0874    3059.7846    26243.547  -0.51233144    -7.389688   -1170.0884    37.896639    39.459637    29.857323    44648.271 
      15            0    10360.562    10395.513    3036.6356    3093.5415    25056.362  -0.38178227    -7.407146   -1087.3032    37.896639    39.459637    29.857323    44648.271 
      16            0    10356.427    10003.209    2914.9866    3114.9335    23979.706  -0.26042446   -7.4536973   -1017.5437    37.896639    39.459637    29.857323    44648.271 
      17            0    10352.715    9633.9906     2791.094     3126.793    22984.085   -0.1490887   -7.5161381   -958.59175    37.896639    39.459637    29.857323    44648.271 
      18            0    10349.329    9282.0452    2665.9438    3131.1904    22049.001 -0.046225437     -7.58655   -908.73252    37.896639    39.459637    29.857323    44648.271 
      19            0    10346.209    8943.2078    2540.4805    3129.6963    21159.447  0.049895194   -7.6640414   -866.56562    37.896639    39.459637    29.857323    44648.271 
      20            0    10343.311    8614.3854    2415.5962     3123.554    20304.006   0.13779783   -7.7454302    -830.8991    37.896639    39.459637    29.857323    44648.271 
      21            0    10340.602    8293.2112    2292.1438    3113.7682    19473.721   0.22273821   -7.8289416   -800.68882    37.896639    39.459637    29.857323    44648.271 
      22            0    10338.066    7977.8707    2170.9621    3101.1509    18661.499   0.30665999   -7.9132643   -775.03439    37.896639    39.459637    29.857323    44648.271 
      23            0    10335.682     7666.934    2052.9062    3086.3787    17861.517   0.38313476   -8.0012045    -753.1198    37.896639    39.459637    29.857323    44648.271 
      24            0    10333.436    7359.2732    1938.8713    3070.0164    17068.932   0.46545464   -8.0930489   -734.22384    37.896639    39.459637    29.857323    44648.271 
      25            0    10331.318    7054.0359    1829.8368    3052.5265    16279.744   0.55053438    -8.188107   -717.71434    37.896639    39.459637    29.857323    44648.271 
      26            0    10329.315    6750.5223    1726.8873    3034.2678    15490.412   0.64195452   -8.2862831    -703.0293    37.896639    39.459637    29.857323    44648.271 
      27            0    10327.417    6448.1595    1631.2849    3015.5353    14697.658   0.73659103   -8.3886238   -689.71094    37.896639    39.459637    29.857323    44648.271 
      28            0    10325.611    6146.4492    1544.5245    2996.4959    13898.327   0.84400475   -8.4919385   -677.39265    37.896639    39.459637    29.857323    44648.271 
      29            0    10323.933    5854.6475     1470.906    2977.7678    13115.269   0.95683173   -8.6091072   -666.19449    37.896639    39.459637    29.857323    44648.271 
      30            0    10322.448    5590.1479    1415.2035    2960.2692    12394.971    1.0689063   -8.7285936   -656.59402    37.896639    39.459637    29.857323    44648.271 
      31            0    10321.116    5350.4827    1375.5306    2943.4344    11732.483    1.1808031   -8.8436784   -648.47088    37.896639    39.459637    29.857323    44648.271 
      32            0    10319.954    5142.0491    1350.8731    2927.1665    11148.108    1.2870784   -8.9444946   -642.17144    37.896639    39.459637    29.857323    44648.271 
      33            0    10318.921    4959.5315    1337.4477    2910.5876    10630.559    1.3810555   -9.0377178   -637.71748    37.896639    39.459637    29.857323    44648.271 
      34            0    10317.988    4798.0064    1331.9876    2892.9184    10169.113    1.4790811   -9.1462669   -635.23193    37.896639    39.459637    29.857323    44648.271 
      35            0    10317.132    4653.2838    1331.7313    2873.4441     9754.676    1.5526453   -9.2163279   -634.90089    37.896639    39.459637    29.857323    44648.271 
      36            0    10316.337    4521.8504    1334.4731    2851.6238    9379.4543    1.6660607   -9.3528122   -636.92851    37.896639    39.459637    29.857323    44648.271 
      37            0    10315.592    4400.6731    1338.3259    2826.8233    9036.8699    1.6001199   -9.2092881   -641.58675    37.896639    39.459637    29.857323    44648.271 
      38            0    10314.888     4287.503    1342.3182    2799.1393    8721.0514    2.1762156   -10.128262   -648.97991    37.896639    39.459637    29.857323    44648.271 
      39            0    10314.228    4179.3323    1343.6719    2766.1199    8428.2052  0.012705379   -6.3637929   -659.67609    37.896639    39.459637    29.857323    44648.271 
      40            0    10313.853    4113.6922     1347.404    2746.9953    8246.6772    5.4304237   -16.178642   -667.61397    37.896639    39.459637    29.857323    44648.271 
      41            0    10313.177    4009.3098      1345.33    2708.3543    7974.2452    1.8583231   -8.6269411   -681.94102    37.896639    39.459637    29.857323    44648.271 
      42            0    10312.599    3911.1524    1344.2572    2667.0814    7722.1186    1.3790895   -13.412217   -700.87264    37.896639    39.459637    29.857323    44648.271 
      43            0    10312.242    3851.1946    1339.9233     2639.772    7573.8885    2.6782815   -6.1006559   -712.78551    37.896639    39.459637    29.857323    44648.271 
      44            0    10311.642    3753.5573    1334.8937    2593.5462     7332.232     1.714125   -8.6531408   -734.42811    37.896639    39.459637    29.857323    44648.271 
      45            0    10311.212    3670.3744    1331.7784    2544.4412    7134.9035    3.3456901      -17.417   -763.74418    37.896639    39.459637    29.857323    44648.271 
      46            0    10310.589    3578.2352    1318.2216    2491.3397    6925.1444    2.3882094   -8.4499608   -788.74248    37.896639    39.459637    29.857323    44648.271 
      47            0    10310.119    3478.8737    1301.8436    2432.3305    6702.4471  -0.95618816   -13.995795    -815.8504    37.896639    39.459637    29.857323    44648.271 
      48            0     10309.52    3384.7384    1292.2842    2370.7996    6491.1312    1.3481782   -10.474325   -850.86299    37.896639    39.459637    29.857323    44648.271 
      49            0    10309.381    3358.5502    1294.1842    2347.8395    6433.6268    3.4997842    -6.862245   -869.64669    37.896639    39.459637    29.857323    44648.271 
      50            0     10308.85    3272.2817    1279.4242    2286.4941    6250.9268    3.2165222   -9.9376246   -902.71191    37.896639    39.459637    29.857323    44648.271 
      51            0    10308.768    3253.1544    1270.3872    2274.5036    6214.5724     1.048987   -9.2862444   -903.08971    37.896639    39.459637    29.857323    44648.271 
      52            0    10308.334     3170.861    1255.4057    2213.7058    6043.4714   -1.1077525   -11.210954   -934.43254    37.896639    39.459637    29.857323    44648.271 
      53            0    10308.205     3154.769    1257.9833    2201.0163    6005.3075    4.9045153   -7.5693343    -948.1276    37.896639    39.459637    29.857323    44648.271 
      54            0    10307.921    3091.7571    1250.6695      2153.72    5870.8817    7.4081856   -8.2081154   -979.23198    37.896639    39.459637    29.857323    44648.271 
      55            0    10307.555    3036.7247     1234.723    2113.1284    5762.3226    0.9702316   -11.117995   -993.40303    37.896639    39.459637    29.857323    44648.271 
      56            0    10307.429    2986.3249    1221.6701    2076.8501    5660.4545    2.8986201    -4.755592   -1006.5153    37.896639    39.459637    29.857323    44648.271 
      57            0      10307.2     2901.898    1201.4341    2017.9464    5486.3135    3.7284399   -2.0229491   -1031.0387    37.896639    39.459637    29.857323    44648.271 
      58            0    10306.836    2865.3171    1195.0522    1993.7189    5407.1802    1.2952815   -9.2311012   -1046.2105    37.896639    39.459637    29.857323    44648.271 
      59            0    10306.781     2882.946    1204.3596    2002.7659    5441.7124    1.9922027   -10.869531   -1054.7508    37.896639    39.459637    29.857323    44648.271 
      60            0    10306.553    2861.9381     1206.112    1965.7421    5413.9602    2.6914885   -6.4509589   -1084.7463    37.896639    39.459637    29.857323    44648.271 
      61            0    10306.239    2774.6531    1176.2854    1905.4012    5242.2726    1.4710755   -10.620695   -1095.4721    37.896639    39.459637    29.857323    44648.271 
      62            0      10306.2    2744.1657    1166.1826    1904.4264    5161.8882    3.0957656   -8.6661948   -1093.0286    37.896639    39.459637    29.857323    44648.271 
      63            0    10306.087    2655.3766    1138.8794    1893.6651    4933.5854   -1.4832611   -10.985766   -1094.1271    37.896639    39.459637    29.857323    44648.271 
      64            0    10305.808    2602.7495    1121.2908    1855.4931    4831.4644   -2.4568218   -7.5891556   -1109.2389    37.896639    39.459637    29.857323    44648.271 
      65            0    10305.705    2637.1953    1128.1989    1822.1084    4961.2786    3.3466052   -9.4376839   -1121.9779    37.896639    39.459637    29.857323    44648.271 
      66            0    10305.639    2649.3407    1133.2735    1782.7084    5032.0403    3.7464613   -13.055703   -1144.7625    37.896639    39.459637    29.857323    44648.271 
      67            0    10305.464    2593.3088    1123.6086    1757.2912    4899.0266    2.7611197   -10.907458   -1162.3142    37.896639    39.459637    29.857323    44648.271 
      68            0    10305.342    2540.4017    1110.8952    1773.3903    4736.9196    2.4302579   -10.364872   -1147.6064    37.896639    39.459637    29.857323    44648.271 
      69            0    10305.249    2472.7827    1088.1014     1774.424    4555.8226    -1.043708   -5.7399136   -1131.5674    37.896639    39.459637    29.857323    44648.271 
      70            0    10305.053    2411.6553     1041.507    1703.7571    4489.7019   -3.6179221   -6.3561342   -1142.9838    37.896639    39.459637    29.857323    44648.271 
      71            0    10304.865    2394.9592    1023.9376    1658.3486    4502.5915    1.6280979   -12.606084   -1168.0353    37.896639    39.459637    29.857323    44648.271 
      72            0    10304.778    2397.1978    1048.9019    1650.7033    4491.9881    5.0084258   -9.7127117   -1199.7777    37.896639    39.459637    29.857323    44648.271 
      73            0    10304.665    2380.0608    1082.9501     1644.641    4412.5914    4.6888472   -8.0577634   -1220.0394    37.896639    39.459637    29.857323    44648.271 
      74            0     10304.47    2335.3012    1073.6127    1623.3651    4308.9257    2.9774095   -9.3083928   -1203.8851    37.896639    39.459637    29.857323    44648.271 
      75            0    10304.414    2293.8758    1031.4102    1597.8056    4252.4115    1.5136377   -7.7418248   -1191.2588    37.896639    39.459637    29.857323    44648.271 
      76            0     10304.39    2248.7894    977.81553    1576.6196    4191.9329   -1.1830388   -10.895645   -1181.5983    37.896639    39.459637    29.857323    44648.271 
      77            0     10304.34    2207.8168     919.1388    1567.2556     4137.056    2.2523002   -10.711779   -1186.9681    37.896639    39.459637    29.857323    44648.271 
      78            0    10304.206    2181.4164    887.48021    1556.7757    4099.9934    6.2044718   -10.407476   -1203.1206    37.896639    39.459637    29.857323    44648.271 
      79            0    10304.143     2207.108    956.83916    1544.8237    4119.6613    1.2585345   -11.493084   -1190.4481    37.896639    39.459637    29.857323    44648.271 
      80            0    10304.112    2220.3322    1009.6727    1541.0724    4110.2516  -0.97583451   -8.9730638   -1176.4273    37.896639    39.459637    29.857323    44648.271 
      81            0    10304.072    2200.5257     999.1097    1559.0559    4043.4115  -0.61319208   -8.4505717    -1177.881    37.896639    39.459637    29.857323    44648.271 
      82            0    10304.005     2165.905    949.15249    1570.1333    3978.4293    3.0997964   -8.9797767   -1194.0928    37.896639    39.459637    29.857323    44648.271 
      83            0    10303.887    2138.0742    904.37871    1532.9411    3976.9027    6.2726899   -9.3704857   -1195.7373    37.896639    39.459637    29.857323    44648.271 
      84            0    10303.819    2130.9457    915.79799    1504.9682    3972.0709    1.1492255   -12.122761   -1178.5213    37.896639    39.459637    29.857323    44648.271 
      85            0     10303.78    2122.0885    955.06098    1484.6997    3926.5048   -3.6955334   -8.8533196   -1155.8067    37.896639    39.459637    29.857323    44648.271 
      86            0    10303.715    2095.4612    951.94783     1493.035    3841.4008   -1.2553242   -5.4610047   -1147.4652    37.896639    39.459637    29.857323    44648.271 
      87            0     10303.61     2059.272    904.06654    1498.4889    3775.2605    2.8084978   -8.4503167   -1145.0662    37.896639    39.459637    29.857323    44648.271 
      88            0    10303.561    2068.1578    899.44062    1476.8247    3828.2079    1.7045747   -10.479657   -1149.5101    37.896639    39.459637    29.857323    44648.271 
      89            0     10303.54    2077.7585    906.85392    1461.4339    3864.9878   0.44210822   -11.553856   -1159.4678    37.896639    39.459637    29.857323    44648.271 
      90            0    10303.511    2053.6852     896.0991    1470.3513    3794.6051    1.4968111   -8.8580106   -1165.7034    37.896639    39.459637    29.857323    44648.271 
      91            0    10303.455    1998.6626    857.09589    1488.1716    3650.7202  0.092789154   -5.5744889   -1157.5558    37.896639    39.459637    29.857323    44648.271 
      92            0    10303.369    1994.4511    853.27655    1476.0804    3653.9964    -1.920036   -7.8932581    -1138.737    37.896639    39.459637    29.857323    44648.271 
      93            0     10303.31    2020.7732    883.28571    1451.8998    3727.1341    2.0589235    -10.11084   -1132.3606    37.896639    39.459637    29.857323    44648.271 
      94            0    10303.272    2029.9854    914.14891    1406.4463     3769.361    3.3502491   -14.655084   -1127.9098    37.896639    39.459637    29.857323    44648.271 
      95            0    10303.196    2003.2835    904.36889    1385.7422    3719.7394    2.6396714   -13.885175   -1122.3244    37.896639    39.459637    29.857323    44648.271 
      96            0    10303.149    1963.9002     852.1561    1424.8887    3614.6557    1.8756687   -8.9769348    -1115.111    37.896639    39.459637    29.857323    44648.271 
      97            0     10303.14    1955.4564    839.42117    1436.3824    3590.5657   0.27080175    -9.563285   -1112.1832    37.896639    39.459637    29.857323    44648.271 
      98            0    10303.126    1968.3624    856.67004    1432.7163    3615.7008   0.14129119   -9.2676111   -1117.6083    37.896639    39.459637    29.857323    44648.271 
      99            0    10303.105    1983.9818    884.27263    1422.3551    3645.3177 0.0088706826    -10.36748   -1132.5186    37.896639    39.459637    29.857323    44648.271 
     100            0     10303.04    1974.3001    885.69421    1420.0296    3617.1764    1.5506968    -11.72101   -1138.3444    37.896639    39.459637    29.857323    44648.271 
     101            0    10303.002    1952.1739    856.96224     1434.136    3565.4236    2.2326806   -8.6751159   -1109.8008    37.896639    39.459637    29.857323    44648.271 
     102            0    10302.978    1926.9445    829.26857    1436.4432    3515.1217    0.4047334   -7.6575662    -1078.156    37.896639    39.459637    29.857323    44648.271 
     103            0    10302.953    1917.5886    829.99074    1402.8896    3519.8854  0.037094483   -9.3678205   -1079.9673    37.896639    39.459637    29.857323    44648.271 
     104            0    10302.922    1913.3832    835.48687    1358.9552    3545.7076   0.97451486   -12.302869   -1097.1961    37.896639    39.459637    29.857323    44648.271 
     105            0    10302.896    1920.6864    837.57073    1376.5806     3547.908  0.093958807    -13.27279   -1104.9801    37.896639    39.459637    29.857323    44648.271 
     106            0    10302.851    1934.4461    843.54849    1451.7008     3508.089    3.2965889   -6.5629827   -1099.5751    37.896639    39.459637    29.857323    44648.271 
     107            0    10302.801    1907.5351    845.09955    1436.8331    3440.6727     3.294241   -5.8446575   -1079.5598    37.896639    39.459637    29.857323    44648.271 
     108            0    10302.736    1876.6372    846.03809    1384.9146    3398.9589   -3.2427832   -9.9617906   -1066.3488    37.896639    39.459637    29.857323    44648.271 
     109            0    10302.696    1885.7975    843.86419    1380.8208    3432.7075   -1.3247382   -8.9223396   -1074.2615    37.896639    39.459637    29.857323    44648.271 
     110            0    10302.676    1888.9604    827.38971    1383.6876    3455.8039    4.2576192   -10.459707   -1076.6252    37.896639    39.459637    29.857323    44648.271 
     111            0     10302.66    1868.0836    807.21318    1371.2893    3425.7482    2.8449422   -12.191641   -1066.8635    37.896639    39.459637    29.857323    44648.271 
     112            0    10302.644    1847.7724    801.50835    1358.6026    3383.2064   -1.2650597   -10.021825   -1057.2051    37.896639    39.459637    29.857323    44648.271 
     113            0    10302.624    1852.6099    824.03554    1365.4838    3368.3104   -2.8672983   -7.4847318   -1056.3608    37.896639    39.459637    29.857323    44648.271 
     114            0      10302.6    1864.4604    837.32446    1370.8836    3385.1733    1.1067342   -7.9724529   -1061.5562    37.896639    39.459637    29.857323    44648.271 
     115            0    10302.553    1865.5503    828.13436    1359.9611    3408.5554    6.5464888   -12.149969    -1071.752    37.896639    39.459637    29.857323    44648.271 
     116            0    10302.518    1846.4206    818.94062    1356.6489    3363.6722   0.86743989   -13.049384   -1066.1547    37.896639    39.459637    29.857323    44648.271 
     117            0    10302.466    1817.2844    812.29389    1355.8345    3283.7248   -3.6444286   -9.9087097   -1048.1018    37.896639    39.459637    29.857323    44648.271 
     118            0    10302.446    1817.9437    810.91715     1348.826     3294.088   0.28575601   -9.5271274   -1045.5667    37.896639    39.459637    29.857323    44648.271 
     119            0    10302.439    1819.8834    804.08411    1334.0167    3321.5493    2.3729554    -10.11325   -1047.0113    37.896639    39.459637    29.857323    44648.271 
     120            0    10302.434    1817.2113    800.87616    1330.6434    3320.1143    1.6297715   -10.100404   -1048.5796    37.896639    39.459637    29.857323    44648.271 
     121            0    10302.425     1808.533    805.05259    1336.6084    3283.9381   -1.5999017   -11.167761   -1049.9286    37.896639    39.459637    29.857323    44648.271 
     122            0    10302.412    1802.9017    812.70073     1330.143    3265.8614  -0.61165595   -8.7392323   -1044.8402    37.896639    39.459637    29.857323    44648.271 
     123            0    10302.376    1791.0579    806.56491    1306.1796     3260.429    2.8927668   -4.9209102   -1032.5448    37.896639    39.459637    29.857323    44648.271 
     124            0    10302.343    1784.2321    788.31877    1307.9883    3256.3893  -0.82023197   -11.672424   -1038.0309    37.896639    39.459637    29.857323    44648.271 
     125            0    10302.318     1784.456    785.16354    1316.3604     3251.844   -1.2065207   -16.552529   -1049.7727    37.896639    39.459637    29.857323    44648.271 
     126            0     10302.28    1785.2172    806.62915    1310.4833    3238.5391    4.3094347   -12.697775    -1048.066    37.896639    39.459637    29.857323    44648.271 
     127            0    10302.239     1772.485    813.10438    1297.9694    3206.3812    3.6791386   -7.5279855    -1037.162    37.896639    39.459637    29.857323    44648.271 
     128            0    10302.216    1752.9591    792.97445    1292.8846    3173.0182   -2.9616436   -4.7895009    -1035.873    37.896639    39.459637    29.857323    44648.271 
     129            0    10302.185    1732.4902    771.23026    1278.5238    3147.7166   -6.4246154   -8.4438571   -1036.7147    37.896639    39.459637    29.857323    44648.271 
     130            0    10302.156    1722.6239    771.98168    1245.4151    3150.4749    2.3473555   -14.312157   -1026.5087    37.896639    39.459637    29.857323    44648.271 
     131            0     10302.14    1722.5304    779.42386    1233.6555    3154.5118    6.5760116   -12.880638   -1022.2789    37.896639    39.459637    29.857323    44648.271 
     132            0    10302.118    1729.9277    793.81256     1254.614    3141.3564   0.17221099    -8.148618   -1031.2274    37.896639    39.459637    29.857323    44648.271 
     133            0    10302.103    1727.7563    799.87307    1266.9487     3116.447   -2.8155933   -8.1869254   -1035.3386    37.896639    39.459637    29.857323    44648.271 
     134            0    10302.088    1712.4272    792.72162    1255.1555    3089.4044   0.35398973   -10.122374   -1029.1052    37.896639    39.459637    29.857323    44648.271 
     135            0    10302.077    1702.7582    779.89655    1239.6546    3088.7236    1.4214707   -11.580437   -1024.4623    37.896639    39.459637    29.857323    44648.271 
     136            0    10302.066    1705.6425     769.5642    1234.3123    3113.0511   0.11156209   -9.5752337   -1027.8249    37.896639    39.459637    29.857323    44648.271 
     137            0    10302.059    1704.5133    771.28799    1232.2714    3109.9806   0.78801684    -8.577748   -1028.5755    37.896639    39.459637    29.857323    44648.271 
     138            0    10302.049    1692.5287    784.48387    1224.7644    3068.3378   0.99149557   -11.683139   -1023.3049    37.896639    39.459637    29.857323    44648.271 
     139            0    10302.043    1688.4042    789.00349    1220.4926    3055.7164  -0.25300072    -11.46381   -1020.1379    37.896639    39.459637    29.857323    44648.271 
     140            0    10302.035    1692.9348    782.61006    1221.3939    3074.8004  -0.35242959   -7.7508851     -1019.68    37.896639    39.459637    29.857323    44648.271 
     141            0    10302.029    1694.3428    775.93339    1223.1115    3083.9835    0.5545862   -8.8106218   -1021.6104    37.896639    39.459637    29.857323    44648.271 
     142            0    10302.022     1686.334    774.99991    1220.9503    3063.0518    1.7492698   -13.296944   -1026.3063    37.896639    39.459637    29.857323    44648.271 
     143            0    10302.015    1681.6575    778.30156    1219.0289    3047.6422    1.1545529   -11.760784   -1027.0569    37.896639    39.459637    29.857323    44648.271 
     144            0    10302.007    1682.2363    782.10726    1217.8106    3046.7911   -1.1920525   -7.8106561    -1022.019    37.896639    39.459637    29.857323    44648.271 
     145            0        10302    1683.0021    780.55985    1211.4857    3056.9606  -0.37422833   -8.3578861   -1015.6249    37.896639    39.459637    29.857323    44648.271 
     146            0    10301.992    1677.0589    776.28943     1197.972    3056.9154    1.5055067   -10.504426   -1011.8156    37.896639    39.459637    29.857323    44648.271 
     147            0    10301.986    1668.0049    775.67801    1191.0926    3037.2441    0.6467482    -11.73359   -1014.7001    37.896639    39.459637    29.857323    44648.271 
     148            0    10301.979    1662.1636    780.00538    1193.5047    3012.9809 -0.0032679452   -10.466181   -1021.0358    37.896639    39.459637    29.857323    44648.271 
     149            0    10301.973    1666.1387     781.2755    1197.9499    3019.1907   0.75180707   -9.4893525   -1020.8714    37.896639    39.459637    29.857323    44648.271 
     150            0    10301.967    1669.4383    777.87941    1198.3864    3032.0493    0.3593827   -10.628545   -1015.6422    37.896639    39.459637    29.857323    44648.271 
     151            0    10301.963     1662.192     775.1885    1190.7622    3020.6254  -0.21508265   -10.263776   -1011.9325    37.896639    39.459637    29.857323    44648.271 
     152            0     10301.96    1656.2106    777.37572     1184.245    3007.0111   0.29873002     -8.77992   -1012.3417    37.896639    39.459637    29.857323    44648.271 
     153            0    10301.957     1659.014    780.43373    1185.0013    3011.6068   0.66621525   -9.9893812   -1015.1475    37.896639    39.459637    29.857323    44648.271 
     154            0    10301.952    1662.7989    780.49808    1186.6222    3021.2764   0.77995123   -11.749944   -1016.6879    37.896639    39.459637    29.857323    44648.271 
     155            0     10301.95    1656.9731    778.79684    1182.2529    3009.8697   0.24012639   -10.213098   -1014.6839    37.896639    39.459637    29.857323    44648.271 
     156            0    10301.947    1648.5027    777.91669    1176.1461    2991.4455  -0.50287947    -8.779725   -1012.4142    37.896639    39.459637    29.857323    44648.271 
     157            0    10301.945    1649.5641     777.6608    1176.0947    2994.9369   0.39672516   -9.9538252   -1012.6019    37.896639    39.459637    29.857323    44648.271 
     158            0    10301.942    1653.0313    777.09959    1177.2517    3004.7425     1.055915   -11.302857   -1012.7241    37.896639    39.459637    29.857323    44648.271 
     159            0    10301.939    1653.0758    780.38539    1176.6149    3002.2272    0.3561554   -11.126994   -1013.0328    37.896639    39.459637    29.857323    44648.271 
     160            0    10301.935    1650.5198    785.54246    1175.2164    2990.8005   0.33846631   -9.1887228   -1014.4451    37.896639    39.459637    29.857323    44648.271 
     161            0    10301.932    1645.7527    781.38029    1173.0723    2982.8055   0.61433368   -8.8341277   -1015.0217    37.896639    39.459637    29.857323    44648.271 
     162            0    10301.929    1641.4104    773.72575    1168.8509    2981.6544  -0.13017019   -10.575615   -1013.7939    37.896639    39.459637    29.857323    44648.271 
     163            0    10301.926    1640.6659    773.61275    1162.5597    2985.8251   -0.4446549   -10.854716   -1011.6062    37.896639    39.459637    29.857323    44648.271 
     164            0    10301.924    1641.2837    780.45417    1160.8107    2982.5862   0.39125666   -10.017113   -1011.5866    37.896639    39.459637    29.857323    44648.271 
     165            0    10301.921    1639.8919    786.79413    1163.2844    2969.5971    1.1616035    -10.48007   -1013.4349    37.896639    39.459637    29.857323    44648.271 
     166            0    10301.918    1637.3389     786.2872    1162.7761    2962.9533   0.89525981    -10.27612    -1013.891    37.896639    39.459637    29.857323    44648.271 
     167            0    10301.917     1635.283    779.92687    1156.6954    2969.2267  -0.52449733   -9.2833545   -1011.7499    37.896639    39.459637    29.857323    44648.271 
     168            0    10301.915    1634.3298    777.20932    1154.5344    2971.2456  -0.54591001   -9.9085177   -1011.1167    37.896639    39.459637    29.857323    44648.271 
     169            0    10301.914      1633.17    779.42084     1157.633    2962.4563    1.2135287   -10.832709   -1013.8834    37.896639    39.459637    29.857323    44648.271 
     170            0    10301.912    1632.5365    781.46661    1158.3212    2957.8217    1.0528715   -10.392487    -1015.581    37.896639    39.459637    29.857323    44648.271 
     171            0    10301.911    1632.6044    782.73006    1154.5339    2960.5492   -0.4138914   -9.9590317   -1013.9714    37.896639    39.459637    29.857323    44648.271 
     172            0     10301.91    1632.4264    783.79531    1151.2579     2962.226  -0.45946631    -9.853287   -1011.4409    37.896639    39.459637    29.857323    44648.271 
     173            0    10301.908    1630.1991    784.03804    1150.7009    2955.8583   0.55242412   -10.218858    -1010.565    37.896639    39.459637    29.857323    44648.271 
     174            0    10301.907    1627.5875    781.70287    1150.6072    2950.4524   0.79387871   -10.463935   -1011.4479    37.896639    39.459637    29.857323    44648.271 
     175            0    10301.905    1625.3243    776.76169    1149.7312    2949.4799   0.37756673   -9.6269478   -1013.5692    37.896639    39.459637    29.857323    44648.271 
     176            0    10301.904    1626.6183    778.20828    1149.8935    2951.7532  0.030173084   -9.8782301   -1014.7846    37.896639    39.459637    29.857323    44648.271 
     177            0    10301.902    1630.0864    786.84583    1150.7744    2952.6388   0.32453338   -11.556903     -1014.76    37.896639    39.459637    29.857323    44648.271 
     178            0    10301.901    1629.1148    788.94956    1149.5679     2948.827   0.41831664   -10.614254   -1013.0637    37.896639    39.459637    29.857323    44648.271 
     179            0    10301.899     1623.042    781.61184    1146.2154    2941.2989    -0.291282   -8.0934292   -1010.5553    37.896639    39.459637    29.857323    44648.271 
     180            0    10301.898    1620.9681    778.08412    1145.1196    2939.7006   0.16760854   -9.3179895   -1011.2501    37.896639    39.459637    29.857323    44648.271 
     181            0    10301.895    1622.2165    780.68717    1144.7208    2941.2416   0.99481452   -11.934401   -1013.7446    37.896639    39.459637    29.857323    44648.271 
     182            0    10301.895    1622.4171    784.12524    1143.5673    2939.5588   0.31830049   -11.339615   -1013.6329    37.896639    39.459637    29.857323    44648.271 
     183            0    10301.894     1621.226    786.26899    1142.1561    2935.2528  -0.21402712   -8.7429559   -1012.0152    37.896639    39.459637    29.857323    44648.271 
     184            0    10301.893      1620.55    784.27839    1142.4952    2934.8763  0.075101117   -8.7937336   -1012.3426    37.896639    39.459637    29.857323    44648.271 
     185            0    10301.892     1619.882    780.12283    1143.7715    2935.7516   0.19751678   -11.322676   -1013.5333    37.896639    39.459637    29.857323    44648.271 
     186            0    10301.891    1619.9078    781.70964    1143.8297     2934.184   0.53917914   -11.395925   -1012.9687    37.896639    39.459637    29.857323    44648.271 
     187            0     10301.89    1620.3864    786.68748    1142.9194    2931.5525   0.75176006   -9.1575651   -1012.0615    37.896639    39.459637    29.857323    44648.271 
     188            0     10301.89    1619.5763    786.09193    1141.9168    2930.7203  0.083314744   -9.0886377   -1012.5624    37.896639    39.459637    29.857323    44648.271 
     189            0    10301.889    1617.4175    780.78382     1140.725    2930.7437  -0.32478774   -10.915278   -1013.1451    37.896639    39.459637    29.857323    44648.271 
     190            0    10301.888    1617.0733    780.67298    1140.0973    2930.4496   0.14071992   -10.642026   -1012.2971    37.896639    39.459637    29.857323    44648.271 
     191            0    10301.887    1618.1687    785.11611    1140.2088     2929.181   0.56256262   -9.6267381   -1011.6562    37.896639    39.459637    29.857323    44648.271 
     192            0    10301.887    1618.3332    787.24682    1140.9508    2926.8021   0.60853229   -10.177118   -1013.0235    37.896639    39.459637    29.857323    44648.271 
     193            0    10301.886    1617.0672    784.75425    1141.2468    2925.2004   0.17252012   -10.754149   -1014.2352    37.896639    39.459637    29.857323    44648.271 
     194            0    10301.886    1616.3856    781.73721    1141.1758    2926.2439  -0.14136845   -10.143125   -1013.6086    37.896639    39.459637    29.857323    44648.271 
     195            0    10301.885    1616.6241    782.09772     1141.164    2926.6107   0.46148251   -9.2175392   -1012.3642    37.896639    39.459637    29.857323    44648.271 
     196            0    10301.884     1615.744    784.51996    1140.5398    2922.1723   0.41238304   -10.033262   -1012.3675    37.896639    39.459637    29.857323    44648.271 
     197            0    10301.883    1614.6879    785.21221    1139.6222    2919.2291  -0.17799898   -11.139779    -1013.103    37.896639    39.459637    29.857323    44648.271 
     198            0    10301.883    1615.4676    784.18945    1139.2169    2922.9963    0.3103866   -10.275252   -1013.8309    37.896639    39.459637    29.857323    44648.271 
     199            0    10301.882    1616.3885    784.27738    1139.3884    2925.4997   0.72519044   -9.3648541   -1013.8927    37.896639    39.459637    29.857323    44648.271 
     200            0    10301.882    1615.4174    785.01054    1139.3653    2921.8763  0.047289325   -10.120116   -1013.5918    37.896639    39.459637    29.857323    44648.271 
     201            0    10301.881    1613.6622    784.42557    1139.1002    2917.4609  -0.29025222    -10.71095   -1013.4752    37.896639    39.459637    29.857323    44648.271 
     202            0    10301.881    1612.8983    782.08913    1139.5988     2917.007   0.44483466   -10.048248   -1013.6467    37.896639    39.459637    29.857323    44648.271 
     203            0    10301.881    1612.8983    782.08913    1139.5988     2917.007   0.44483466   -10.048248   -1013.6467    37.896639    39.459637    29.857323    44648.271 
Loop time of 2.1539 on 8 procs for 194 steps with 3712 atoms

99.5% CPU use with 8 MPI tasks x 1 OpenMP threads

Minimization stats:
  Stopping criterion = linesearch alpha is zero
  Energy initial, next-to-last, final = 
      10403.1681547189   10301.8808457772   10301.8808457772
  Force two-norm initial, final = 360.93964 1.1063391
  Force max component initial, final = 12.904586 0.090645702
  Final line search alpha, max atom move = 1.0064327e-08 9.1228798e-10
  Iterations, force evaluations = 194 355

MPI task timing breakdown:
Section |  min time  |  avg time  |  max time  |%varavg| %total
---------------------------------------------------------------
Pair    | 1.1622     | 1.5824     | 1.9915     |  23.3 | 73.47
Bond    | 0.074461   | 0.076398   | 0.079188   |   0.6 |  3.55
Neigh   | 0          | 0          | 0          |   0.0 |  0.00
Comm    | 0.044922   | 0.45597    | 0.87641    |  43.3 | 21.17
Output  | 0.0069911  | 0.009356   | 0.023575   |   5.6 |  0.43
Modify  | 0          | 0          | 0          |   0.0 |  0.00
Other   |            | 0.02975    |            |       |  1.38

Nlocal:        464.000 ave         464 max         464 min
Histogram: 8 0 0 0 0 0 0 0 0 0
Nghost:        7216.00 ave        7217 max        7215 min
Histogram: 4 0 0 0 0 0 0 0 0 4
Neighs:        197641.0 ave      250813 max      144459 min
Histogram: 1 1 1 1 0 0 1 1 1 1

Total # of neighbors = 1581129
Ave neighs/atom = 425.95070
Ave special neighs/atom = 13.034483
Neighbor list builds = 0
Dangerous builds = 0

# Obtain new stress tensor

variable tmp equal pxx
variable pxx1 equal ${tmp}
variable pxx1 equal 782.089128971312
variable tmp equal pyy
variable pyy1 equal ${tmp}
variable pyy1 equal 1139.59878375945
variable tmp equal pzz
variable pzz1 equal ${tmp}
variable pzz1 equal 2917.00703727827
variable tmp equal pxy
variable pxy1 equal ${tmp}
variable pxy1 equal 0.44483466173072
variable tmp equal pxz
variable pxz1 equal ${tmp}
variable pxz1 equal -10.0482475331872
variable tmp equal pyz
variable pyz1 equal ${tmp}
variable pyz1 equal -1013.646748195

# Compute elastic constant from pressure tensor

variable C1neg equal ${d1}
variable C1neg equal 7.89733430832521
variable C2neg equal ${d2}
variable C2neg equal 11.5320225625472
variable C3neg equal ${d3}
variable C3neg equal 29.5191477461772
variable C4neg equal ${d4}
variable C4neg equal -10.6038492967846
variable C5neg equal ${d5}
variable C5neg equal -0.0160840102948164
variable C6neg equal ${d6}
variable C6neg equal 0.0116371787337208

# Reset box and simulation parameters

clear
OMP_NUM_THREADS environment is not set. Defaulting to 1 thread. (src/lammps-master/src/comm.cpp:94)
  using 1 OpenMP thread(s) per MPI task
box tilt large
read_restart restart.equil
Reading restart file ...
  restart file = 30 Nov 2020, LAMMPS = 30 Nov 2020
  restoring atom style full from restart
  triclinic box = (-0.00043121516 0.0048660643 -9.7033041e-05) to (37.896208 39.464503 30.158815) with tilt (0.0020704893 0.0037010238 -1.2416220)
  2 by 2 by 2 MPI processor grid
  restoring pair style lj/cut from restart
  restoring bond style harmonic from restart
  restoring angle style hybrid from restart
  restoring dihedral style harmonic from restart
  restoring improper style fourier from restart
  3712 atoms
  4096 bonds
  7808 angles
  9856 dihedrals
  3072 impropers
Finding 1-2 1-3 1-4 neighbors ...
  special bond factors lj:    0        0        1       
  special bond factors coul:  0        0        0       
     4 = max # of 1-2 neighbors
     8 = max # of 1-3 neighbors
    21 = max # of 1-4 neighbors
    25 = max # of special neighbors
  special bonds CPU = 0.001 seconds
  read_restart CPU = 0.004 seconds
include potential.mod
pair_style      lj/cut 12.5
bond_style      harmonic
angle_style     hybrid cosine/periodic fourier
dihedral_style  harmonic
improper_style  fourier


special_bonds   lj 0.0 0.0 1.0
pair_modify     tail yes mix arithmetic
include data.pair
bond_coeff     1      154.048673        1.928536  # Zn3f2 N_R
bond_coeff     2      122.127512        2.014866  # Zn3f2 O_2
bond_coeff     3      153.811316        1.929528  # Zn3f2 N_3
bond_coeff     4      527.945261        1.044419  # H_ N_3
bond_coeff     5      357.440381        1.081418  # H_ C_R
bond_coeff     6      331.069389        1.109401  # H_ C_3
bond_coeff     7      529.459447        1.043423  # H_ N_R
bond_coeff     8      663.718927        1.345073  # C_R N_R
bond_coeff     9      462.655054        1.379256  # C_R C_R
bond_coeff    10      369.943935        1.486000  # C_R C_3
bond_coeff    11      714.557442        1.269010  # C_R O_2
bond_coeff    12      646.680887        1.311940  # C_R O_R
bond_coeff    13      349.795899        1.514000  # C_3 C_3
bond_coeff    14      529.724731        1.450075  # C_3 N_R
bond_coeff    15      528.634538        1.451071  # C_3 N_3
angle_coeff     1                      fourier      183.483089        0.343737        0.374972        0.281246 # N_R Zn3f2 N_R
angle_coeff     2                      fourier      155.087435        0.343737        0.374972        0.281246 # N_R Zn3f2 O_2
angle_coeff     3                      fourier      183.341639        0.343737        0.374972        0.281246 # N_R Zn3f2 N_3
angle_coeff     4                      fourier      154.973760        0.343737        0.374972        0.281246 # O_2 Zn3f2 N_3
angle_coeff     5              cosine/periodic      159.573934              -1               3 # H_ C_R N_R
angle_coeff     6              cosine/periodic      424.885146              -1               3 # N_R C_R N_R
angle_coeff     7              cosine/periodic      114.578032              -1               3 # H_ C_R C_R
angle_coeff     8              cosine/periodic      307.398705              -1               3 # C_R C_R N_R
angle_coeff     9              cosine/periodic      198.274298              -1               3 # C_R C_R C_3
angle_coeff    10              cosine/periodic      273.097456              -1               3 # C_3 C_R N_R
angle_coeff    11              cosine/periodic      393.120049              -1               3 # O_2 C_R O_R
angle_coeff    12              cosine/periodic      266.629989              -1               3 # O_2 C_R C_3
angle_coeff    13              cosine/periodic      255.317313              -1               3 # O_R C_R C_3
angle_coeff    14                      fourier      117.318683        0.343737        0.374972        0.281246 # H_ C_3 C_3
angle_coeff    15                      fourier      170.007371        0.343737        0.374972        0.281246 # H_ C_3 N_R
angle_coeff    16                      fourier      121.777217        0.343737        0.374972        0.281246 # H_ C_3 C_R
angle_coeff    17                      fourier      303.594562        0.343737        0.374972        0.281246 # C_3 C_3 N_R
angle_coeff    18                      fourier      220.229931        0.343737        0.374972        0.281246 # C_3 C_3 C_R
angle_coeff    19                      fourier      312.548166        0.343737        0.374972        0.281246 # N_R C_3 C_R
angle_coeff    20                      fourier       75.498766        0.343737        0.374972        0.281246 # H_ C_3 H_
angle_coeff    21                      fourier      169.780468        0.343737        0.374972        0.281246 # H_ C_3 N_3
angle_coeff    22                      fourier      303.297032        0.343737        0.374972        0.281246 # C_3 C_3 N_3
angle_coeff    23              cosine/periodic      398.603153              -1               3 # N_R C_R O_R
angle_coeff    24                      fourier       51.536168        0.317506        0.313225        0.272502 # Zn3f2 N_3 H_
angle_coeff    25                      fourier      108.360206        0.317506        0.313225        0.272502 # Zn3f2 N_3 C_3
angle_coeff    26                      fourier       97.017167        0.317506        0.313225        0.272502 # H_ N_3 H_
angle_coeff    27                      fourier      144.695053        0.317506        0.313225        0.272502 # H_ N_3 C_3
angle_coeff    28              cosine/periodic       87.429320              -1               3 # Zn3f2 N_R C_R
angle_coeff    29              cosine/periodic      240.001032              -1               3 # C_R N_R C_R
angle_coeff    30              cosine/periodic      108.417222              -1               3 # H_ N_R C_3
angle_coeff    31              cosine/periodic      125.071223              -1               3 # H_ N_R C_R
angle_coeff    32              cosine/periodic      213.564697              -1               3 # C_3 N_R C_R
angle_coeff    33              cosine/periodic       84.412329              -1               3 # Zn3f2 O_2 C_R
dihedral_coeff     1        1.497136              -1               2 # H_ C_R N_R Zn3f2
dihedral_coeff     2        0.083333               1               3 # C_R C_R C_3 C_3
dihedral_coeff     3        2.245703              -1               2 # O_R C_R O_2 Zn3f2
dihedral_coeff     4        0.066219               1               3 # H_ C_3 C_3 C_R
dihedral_coeff     5        0.416667              -1               2 # H_ C_3 N_R H_
dihedral_coeff     6        0.030516               1               3 # H_ C_3 N_3 Zn3f2
improper_coeff     1        2.000000        1.000000       -1.000000        0.000000               0 # H_ C_R N_R N_R
pair_coeff 1 1 0.124 2.461553
pair_coeff 1 2 0.07386474125047755 2.5163434999999996
pair_coeff 1 3 0.11410521460476729 2.946202
pair_coeff 1 4 0.11410521460476729 2.946202
pair_coeff 1 5 0.09249864863877742 2.861121
pair_coeff 1 6 0.09249864863877742 2.861121
pair_coeff 1 7 0.08625543461139129 2.7898495
pair_coeff 1 8 0.08625543461139129 2.7898495
pair_coeff 2 2 0.044 2.571134
pair_coeff 2 3 0.0679705818718657 3.0009924999999997
pair_coeff 2 4 0.0679705818718657 3.0009924999999997
pair_coeff 2 5 0.05509990925582364 2.9159115
pair_coeff 2 6 0.05509990925582364 2.9159115
pair_coeff 2 7 0.05138093031466051 2.84464
pair_coeff 2 8 0.05138093031466051 2.84464
pair_coeff 3 3 0.105 3.430851
pair_coeff 3 4 0.105 3.430851
pair_coeff 3 5 0.08511756575466665 3.34577
pair_coeff 3 6 0.08511756575466665 3.34577
pair_coeff 3 7 0.07937253933193772 3.2744985
pair_coeff 3 8 0.07937253933193772 3.2744985
pair_coeff 4 4 0.105 3.430851
pair_coeff 4 5 0.08511756575466665 3.34577
pair_coeff 4 6 0.08511756575466665 3.34577
pair_coeff 4 7 0.07937253933193772 3.2744985
pair_coeff 4 8 0.07937253933193772 3.2744985
pair_coeff 5 5 0.069 3.2606889999999997
pair_coeff 5 6 0.069 3.2606889999999997
pair_coeff 5 7 0.06434283176858166 3.1894175
pair_coeff 5 8 0.06434283176858166 3.1894175
pair_coeff 6 6 0.069 3.2606889999999997
pair_coeff 6 7 0.06434283176858166 3.1894175
pair_coeff 6 8 0.06434283176858166 3.1894175
pair_coeff 7 7 0.06 3.118146
pair_coeff 7 8 0.06 3.118146
pair_coeff 8 8 0.06 3.118146

# Setup neighbor style
neighbor 1.0 nsq
neigh_modify once no every 1 delay 0 check yes

# Setup minimization style
min_style	     cg
min_modify	     dmax ${dmax} line quadratic
min_modify	     dmax 0.001 line quadratic

# Setup output
thermo		1
thermo_style custom step temp pe press pxx pyy pzz pxy pxz pyz lx ly lz vol
thermo_modify norm no

# Positive deformation

variable delta equal ${up}*${len0}
variable delta equal 0.01*${len0}
variable delta equal 0.01*30.1589120660827
variable deltaxy equal ${up}*xy
variable deltaxy equal 0.01*xy
variable deltaxz equal ${up}*xz
variable deltaxz equal 0.01*xz
variable deltayz equal ${up}*yz
variable deltayz equal 0.01*yz
if "${dir} == 1" then    "change_box all x delta 0 ${delta} xy delta ${deltaxy} xz delta ${deltaxz} remap units box"
if "${dir} == 2" then    "change_box all y delta 0 ${delta} yz delta ${deltayz} remap units box"
if "${dir} == 3" then    "change_box all z delta 0 ${delta} remap units box"
change_box all z delta 0 ${delta} remap units box
change_box all z delta 0 0.301589120660827 remap units box
Changing box ...
  triclinic box = (-0.00043121516 0.0048660643 -9.7033041e-05) to (37.896208 39.464503 30.460404) with tilt (0.0020704893 0.0037010238 -1.2416220)
if "${dir} == 4" then    "change_box all yz delta ${delta} remap units box"
if "${dir} == 5" then    "change_box all xz delta ${delta} remap units box"
if "${dir} == 6" then    "change_box all xy delta ${delta} remap units box"

# Relax atoms positions

minimize ${etol} ${ftol} ${maxiter} ${maxeval}
minimize 1e-10 ${ftol} ${maxiter} ${maxeval}
minimize 1e-10 1e-10 ${maxiter} ${maxeval}
minimize 1e-10 1e-10 100000 ${maxeval}
minimize 1e-10 1e-10 100000 10000000
Neighbor list info ...
  update every 1 steps, delay 0 steps, check yes
  max neighbors/atom: 2000, page size: 100000
  master list distance cutoff = 13.5
  ghost atom cutoff = 13.5
  1 neighbor lists, perpetual/occasional/extra = 1 0 0
  (1) pair lj/cut, perpetual
      attributes: half, newton on
      pair build: half/nsq/newton
      stencil: none
      bin: none
WARNING: Inconsistent image flags (src/lammps-master/src/domain.cpp:812)
Per MPI rank memory allocation (min/avg/max) = 18.80 | 18.99 | 19.19 Mbytes
Step Temp PotEng Press Pxx Pyy Pzz Pxy Pxz Pyz Lx Ly Lz Volume 
       9            0    10402.452   -13179.072   -3512.0239   -2523.5607   -33501.633  -0.30942824   -9.0679014    1746.8307    37.896639    39.459637    30.460501    45550.257 
      10            0    10393.036   -12674.724   -3440.4806   -2625.2071   -31958.484  -0.28926473   -8.8266032    1636.8611    37.896639    39.459637    30.460501    45550.257 
      11            0    10384.497   -12148.935   -3359.6152   -2721.5407   -30365.648  -0.24620636    -8.621928    1519.5523    37.896639    39.459637    30.460501    45550.257 
      12            0    10376.933   -11622.311   -3267.5354   -2806.8862   -28792.512  -0.17424199   -8.4756368      1401.59    37.896639    39.459637    30.460501    45550.257 
      13            0    10370.236   -11105.535   -3161.7308   -2878.4974   -27276.376 -0.085073886   -8.3879987    1288.4028    37.896639    39.459637    30.460501    45550.257 
      14            0    10364.678   -10640.523   -3049.6902   -2931.1711   -25940.708  0.012537134   -8.3596039     1191.806    37.896639    39.459637    30.460501    45550.257 
      15            0    10359.977    -10221.16   -2933.9531   -2968.5659   -24760.961    0.1031191    -8.376206    1111.1338    37.896639    39.459637    30.460501    45550.257 
      16            0    10355.849   -9833.7246   -2815.1838   -2994.5967   -23691.393   0.19287672   -8.4090721    1043.2652    37.896639    39.459637    30.460501    45550.257 
      17            0     10352.14   -9469.5595   -2694.3134   -3011.8615   -22702.504    0.2759294   -8.4534827    985.93103    37.896639    39.459637    30.460501    45550.257 
      18            0    10348.753   -9122.8178   -2572.3165   -3022.2602   -21773.877    0.3453769   -8.4881991    937.40238    37.896639    39.459637    30.460501    45550.257 
      19            0    10345.626   -8789.3134   -2450.0786   -3027.2591   -20890.602   0.41347564   -8.5470087    896.27476    37.896639    39.459637    30.460501    45550.257 
      20            0    10342.718   -8465.9517   -2328.4533   -3028.0285   -20041.373   0.48393475   -8.6154203    861.36213    37.896639    39.459637    30.460501    45550.257 
      21            0        10340   -8150.3787   -2208.2403   -3025.5172   -19217.378   0.55183305   -8.6741602    831.64674    37.896639    39.459637    30.460501    45550.257 
      22            0    10337.448   -7840.7837   -2090.2296    -3020.521     -18411.6   0.61643494   -8.7267839    806.23252    37.896639    39.459637    30.460501    45550.257 
      23            0    10335.049   -7535.7335   -1975.2055   -3013.6892   -17618.306   0.68059257     -8.77915    784.33226    37.896639    39.459637    30.460501    45550.257 
      24            0    10332.787   -7234.1151   -1864.0054   -3005.5777   -16832.762   0.74780812   -8.8361052    765.24827    37.896639    39.459637    30.460501    45550.257 
      25            0     10330.65   -6935.0746   -1757.5286   -2996.6678   -16051.028   0.82038252   -8.8918649    748.36466    37.896639    39.459637    30.460501    45550.257 
      26            0    10328.629   -6637.9043   -1656.7638   -2987.3728   -15269.576   0.89301592   -8.9518133      733.156    37.896639    39.459637    30.460501    45550.257 
      27            0    10326.711   -6342.0502   -1562.8695   -2978.0285   -14485.252   0.97420485    -9.014829    719.17482    37.896639    39.459637    30.460501    45550.257 
      28            0    10324.883   -6047.0162   -1477.2181   -2968.9109   -13694.919    1.0605033     -9.08639    706.07915    37.896639    39.459637    30.460501    45550.257 
      29            0    10323.163    -5758.987   -1403.2153   -2960.3929   -12913.353    1.1565363   -9.1592593     693.9119    37.896639    39.459637    30.460501    45550.257 
      30            0    10321.643   -5497.8967   -1346.5775   -2952.9796   -12194.133    1.2504901   -9.2344905    683.37604    37.896639    39.459637    30.460501    45550.257 
      31            0    10320.281   -5261.2775   -1305.5343   -2946.2324   -11532.066    1.3418287   -9.3182617    674.36628    37.896639    39.459637    30.460501    45550.257 
      32            0    10319.087   -5054.7222   -1279.1536   -2939.7422   -10945.271    1.4282175   -9.3980316    667.25353    37.896639    39.459637    30.460501    45550.257 
      33            0    10318.026   -4873.7976   -1263.9821   -2932.7964   -10424.614    1.5116801   -9.4707498    662.09513    37.896639    39.459637    30.460501    45550.257 
      34            0    10317.071   -4713.7129   -1256.8514   -2924.6752    -9959.612    1.5934174   -9.5422416    659.00537    37.896639    39.459637    30.460501    45550.257 
      35            0    10316.196   -4570.4136   -1255.0773   -2914.7899   -9541.3737    1.6615207   -9.6051497    658.15504    37.896639    39.459637    30.460501    45550.257 
      36            0    10315.385   -4440.4838   -1256.5225   -2902.5356   -9162.3932    1.7462748   -9.6669932     659.7369    37.896639    39.459637    30.460501    45550.257 
      37            0     10314.63   -4320.8971   -1259.1528   -2887.6707   -8815.8677    1.7442448    -9.719741    664.01125    37.896639    39.459637    30.460501    45550.257 
      38            0     10313.92   -4209.7036   -1262.5178   -2868.9456   -8497.6475      2.06987   -9.7518511    670.92086    37.896639    39.459637    30.460501    45550.257 
      39            0    10313.276   -4102.8772   -1261.7198    -2849.741   -8197.1708   0.81146824   -10.101263    681.93157    37.896639    39.459637    30.460501    45550.257 
      40            0    10312.898   -4047.0139   -1266.0853    -2832.448   -8042.5085    2.9512256   -9.4493591     687.1091    37.896639    39.459637    30.460501    45550.257 
      41            0    10312.246   -3944.7033   -1263.9985   -2808.8206   -7761.2906    1.6020949   -10.359605    701.90977    37.896639    39.459637    30.460501    45550.257 
      42            0    10311.673    -3850.685   -1262.4896   -2775.7688   -7513.7965    3.6004973   -7.8700511    716.97087    37.896639    39.459637    30.460501    45550.257 
      43            0    10311.307   -3793.6568   -1258.2905   -2759.4586   -7363.2214    1.1471513    -10.90834    731.66186    37.896639    39.459637    30.460501    45550.257 
      44            0    10310.719   -3700.6629   -1254.5619   -2721.3261   -7126.1007    2.2763919   -10.107708    751.84383    37.896639    39.459637    30.460501    45550.257 
      45            0     10310.34   -3633.7239   -1245.2561   -2696.0776   -6959.8381    1.2038969    -9.777003    771.22973    37.896639    39.459637    30.460501    45550.257 
      46            0    10309.926   -3572.8552   -1242.1989   -2663.7495   -6812.6173    2.4946028   -9.6188274    787.82004    37.896639    39.459637    30.460501    45550.257 
      47            0    10309.442   -3487.6757    -1231.045   -2622.6411   -6609.3411   0.46867406   -11.886417    817.42893    37.896639    39.459637    30.460501    45550.257 
      48            0    10309.134   -3442.0448   -1226.3648   -2595.5905    -6504.179    2.9426237   -9.1579078    830.56934    37.896639    39.459637    30.460501    45550.257 
      49            0    10308.629    -3355.558   -1212.9107   -2549.9856   -6303.7776    1.4287099   -10.230295    862.96515    37.896639    39.459637    30.460501    45550.257 
      50            0    10308.353   -3307.6701   -1208.3076   -2518.0127   -6196.6901    2.8554297   -9.8679639    879.75805    37.896639    39.459637    30.460501    45550.257 
      51            0    10307.909   -3232.8853   -1194.5912     -2475.63   -6028.4348    1.6140825   -10.435518    909.99156    37.896639    39.459637    30.460501    45550.257 
      52            0    10307.611   -3181.0631   -1187.6662    -2440.046   -5915.4773     3.231529   -8.8869508    929.60741    37.896639    39.459637    30.460501    45550.257 
      53            0    10307.295   -3127.2489   -1176.6934   -2407.6576   -5797.3956    1.4470185   -10.376139    953.37492    37.896639    39.459637    30.460501    45550.257 
      54            0     10306.96    -3066.975   -1166.5784   -2365.2734   -5669.0732    3.1301693   -9.6463067    976.89967    37.896639    39.459637    30.460501    45550.257 
      55            0    10306.697    -3021.118   -1156.7202   -2337.3462   -5569.2876    1.3343596    -10.38999    997.80526    37.896639    39.459637    30.460501    45550.257 
      56            0     10306.33   -2955.0573   -1145.5136   -2290.9352    -5428.723    2.3978965   -9.5374111    1023.9517    37.896639    39.459637    30.460501    45550.257 
      57            0    10306.087    -2905.826   -1132.7069   -2260.2333   -5324.5378    1.2196813   -10.720995    1044.8462    37.896639    39.459637    30.460501    45550.257 
      58            0     10305.73   -2838.0631   -1119.3261   -2213.8411   -5181.0223    2.2410076   -10.082202    1070.8396    37.896639    39.459637    30.460501    45550.257 
      59            0    10305.539   -2795.3703   -1112.4899   -2186.9535   -5086.6676   -1.0597307   -9.8218375    1088.0369    37.896639    39.459637    30.460501    45550.257 
      60            0    10305.225   -2738.5865   -1093.8149   -2149.7238   -4972.2208    1.7114626   -9.5993634    1103.2562    37.896639    39.459637    30.460501    45550.257 
      61            0    10305.173   -2722.3871   -1085.5861   -2141.6781   -4939.8971    1.9912185   -10.775935    1108.8148    37.896639    39.459637    30.460501    45550.257 
      62            0    10304.987   -2669.5239   -1068.3539   -2111.6031   -4828.6146    3.4661726   -12.002463    1124.8628    37.896639    39.459637    30.460501    45550.257 
      63            0    10304.772   -2645.3413   -1066.0478   -2095.0014   -4774.9748    3.0454485   -10.702884    1131.0257    37.896639    39.459637    30.460501    45550.257 
      64            0    10304.744   -2638.4294   -1063.6849   -2089.4242   -4762.1791   0.76829831   -9.9405577    1132.3046    37.896639    39.459637    30.460501    45550.257 
      65            0    10304.584   -2583.1559   -1039.8133    -2049.114   -4660.5404   0.42567884   -6.3897814    1135.8466    37.896639    39.459637    30.460501    45550.257 
      66            0    10304.332   -2536.2053    -1021.525   -2026.3657   -4560.7253    1.8147792   -8.7106618    1147.7486    37.896639    39.459637    30.460501    45550.257 
      67            0    10304.177   -2522.2392   -1044.0512    -2036.837   -4485.8293    3.0434436   -15.796411    1169.5107    37.896639    39.459637    30.460501    45550.257 
      68            0    10304.073   -2487.0302   -1045.9797   -2026.6783   -4388.4326    3.2276085   -19.846774    1187.4772    37.896639    39.459637    30.460501    45550.257 
      69            0     10303.74   -2417.3168   -1008.3067   -1978.6611   -4264.9827    2.0831954   -17.103609    1193.9064    37.896639    39.459637    30.460501    45550.257 
      70            0    10303.652    -2379.123   -971.67496   -1939.0796   -4226.6145    1.9760934   -9.7922957    1182.0443    37.896639    39.459637    30.460501    45550.257 
      71            0    10303.632   -2364.4663   -964.71187   -1930.7497   -4197.9374    0.5602256   -8.8697744    1180.8558    37.896639    39.459637    30.460501    45550.257 
      72            0    10303.489   -2316.6789   -947.76508   -1907.1199   -4095.1518    1.7667068   -8.3465649    1174.7249    37.896639    39.459637    30.460501    45550.257 
      73            0    10303.386   -2307.8241    -940.1995   -1900.9674   -4082.3055    2.9558508   -11.022352    1174.7854    37.896639    39.459637    30.460501    45550.257 
      74            0    10303.284    -2297.321   -933.99329   -1892.0666   -4065.9032    1.8489939   -12.725832    1177.3693    37.896639    39.459637    30.460501    45550.257 
      75            0    10303.117   -2265.2181   -922.73908   -1876.0063   -3996.9089  -0.42322814    -10.23741    1179.0888    37.896639    39.459637    30.460501    45550.257 
      76            0    10303.004   -2197.1462   -891.26255   -1849.9603   -3850.2158    1.5792635   -7.6609035    1177.0215    37.896639    39.459637    30.460501    45550.257 
      77            0    10302.888   -2161.1543   -880.21683   -1837.0247   -3766.2212    4.8189895   -8.5115917    1171.9233    37.896639    39.459637    30.460501    45550.257 
      78            0    10302.757   -2167.3478   -892.66181   -1837.3849   -3771.9968    2.0467807   -11.772868    1169.1512    37.896639    39.459637    30.460501    45550.257 
      79            0    10302.705   -2142.6194   -868.88681   -1814.8907   -3744.0807   -1.3426273   -9.7492376    1167.5098    37.896639    39.459637    30.460501    45550.257 
      80            0    10302.654    -2100.708   -834.27212   -1782.2057   -3685.6462    -2.839859   -6.6403912     1162.494    37.896639    39.459637    30.460501    45550.257 
      81            0     10302.52   -2063.6554   -815.37543   -1762.7069    -3612.884    0.4164494   -5.7503744    1154.8648    37.896639    39.459637    30.460501    45550.257 
      82            0    10302.482   -2071.5877   -839.33591   -1784.0867   -3591.3404    1.6401846   -10.480455    1155.1169    37.896639    39.459637    30.460501    45550.257 
      83            0     10302.47   -2077.7709    -857.5334   -1798.1879   -3577.5913    2.0135835   -12.232759    1154.0338    37.896639    39.459637    30.460501    45550.257 
      84            0    10302.418   -2059.0856   -850.85485   -1793.7529   -3532.6491    1.1795248   -8.1612236    1147.9799    37.896639    39.459637    30.460501    45550.257 
      85            0    10302.335   -2039.3891   -836.59898   -1786.3011   -3495.2672     1.919477   -6.1520922    1142.3632    37.896639    39.459637    30.460501    45550.257 
      86            0    10302.288   -2043.7575   -840.14199   -1791.9294   -3499.2012    2.1839212    -10.34469     1141.661    37.896639    39.459637    30.460501    45550.257 
      87            0    10302.278   -2036.6612   -826.93366   -1781.3857   -3501.6642   0.74092576   -11.224698    1137.7881    37.896639    39.459637    30.460501    45550.257 
      88            0    10302.257   -2010.9972   -792.53364   -1744.9767   -3495.4812   0.52055186   -9.0708484    1120.5323    37.896639    39.459637    30.460501    45550.257 
      89            0    10302.203   -1981.1438   -784.58149    -1712.669   -3446.1808    2.5959163   -8.1011947    1089.1466    37.896639    39.459637    30.460501    45550.257 
      90            0    10302.117   -1977.0585   -813.49954   -1719.3858     -3398.29    1.9117023   -10.238017    1074.1934    37.896639    39.459637    30.460501    45550.257 
      91            0    10302.102   -1984.3543   -808.72037   -1735.1744   -3409.1683   0.96959095   -9.9775503    1087.8011    37.896639    39.459637    30.460501    45550.257 
      92            0    10302.088   -1997.9552   -801.70621    -1765.846   -3426.3135  -0.03558739   -9.8946513    1112.0082    37.896639    39.459637    30.460501    45550.257 
      93            0    10302.077   -2012.3038   -815.38531   -1789.8244   -3431.7018    2.2109653   -9.3131294    1119.9393    37.896639    39.459637    30.460501    45550.257 
      94            0    10302.055   -2034.0239   -857.46867   -1820.9595   -3423.6435       4.1778   -8.8746671    1118.2838    37.896639    39.459637    30.460501    45550.257 
      95            0    10302.018   -2013.7041    -853.9616   -1805.7174   -3381.4331   0.21525398   -11.477566    1101.8179    37.896639    39.459637    30.460501    45550.257 
      96            0    10301.952   -1983.3094   -830.06318   -1777.9718   -3341.8933   -1.3284788   -12.734425    1082.8629    37.896639    39.459637    30.460501    45550.257 
      97            0    10301.928   -1981.2952   -819.66781    -1776.095   -3348.1226    1.5643129   -10.837754    1083.5987    37.896639    39.459637    30.460501    45550.257 
      98            0     10301.92   -1975.1735   -805.05342   -1770.9315   -3349.5355    2.2443048   -9.5005608    1085.8481    37.896639    39.459637    30.460501    45550.257 
      99            0    10301.914   -1963.0311   -793.72038   -1756.3416   -3339.0312    1.1050004   -9.0062915    1083.3838    37.896639    39.459637    30.460501    45550.257 
     100            0    10301.902   -1940.9931   -787.56358   -1727.6139   -3307.8017  -0.18698774    -10.36505    1068.1803    37.896639    39.459637    30.460501    45550.257 
     101            0     10301.86   -1932.7414   -808.47062   -1700.3549   -3289.3986     1.179939    -10.87169    1030.0061    37.896639    39.459637    30.460501    45550.257 
     102            0    10301.794   -1944.4414    -807.3526    -1705.561   -3320.4106   0.93166851    -8.102436    1022.8965    37.896639    39.459637    30.460501    45550.257 
     103            0    10301.776   -1946.0984   -803.90662   -1732.9571   -3301.4316   0.85503263   -11.245803    1046.4835    37.896639    39.459637    30.460501    45550.257 
     104            0    10301.765    -1954.055   -806.76187   -1771.8106   -3283.5925   0.92593071   -12.491724    1074.6067    37.896639    39.459637    30.460501    45550.257 
     105            0    10301.755    -1963.433   -817.55456   -1784.4202   -3288.3243    1.7300062   -9.1727065    1079.9549    37.896639    39.459637    30.460501    45550.257 
     106            0    10301.744   -1949.8641   -810.28909   -1766.1702    -3273.133    2.9650853   -7.1973709    1067.9466    37.896639    39.459637    30.460501    45550.257 
     107            0    10301.714   -1868.3992   -745.13234   -1692.1488   -3167.9166   0.85508191   -10.019583    1027.6409    37.896639    39.459637    30.460501    45550.257 
     108            0    10301.689    -1824.034   -709.75346   -1664.5351   -3097.8136   -1.2529646   -12.125838    1014.9484    37.896639    39.459637    30.460501    45550.257 
     109            0     10301.64   -1796.6185   -686.37421   -1661.6931   -3041.7883  -0.83971951   -11.305911    1009.9047    37.896639    39.459637    30.460501    45550.257 
     110            0     10301.61   -1839.9163   -731.01025     -1693.74   -3094.9987    1.8723493   -7.7002329    1016.0875    37.896639    39.459637    30.460501    45550.257 
     111            0    10301.587   -1910.2424   -802.16855   -1748.6416    -3179.917    2.9536725   -6.8861608    1036.5471    37.896639    39.459637    30.460501    45550.257 
     112            0    10301.573   -1925.8498   -813.17869   -1766.7419   -3197.6288    1.4093259   -9.9180452    1048.5511    37.896639    39.459637    30.460501    45550.257 
     113            0    10301.565   -1917.3752   -803.02073   -1757.4141   -3191.6906    1.1516943   -11.143568    1046.8182    37.896639    39.459637    30.460501    45550.257 
     114            0    10301.553   -1895.9595   -787.98707   -1719.3812   -3180.5103    1.1521776   -10.983201    1030.8429    37.896639    39.459637    30.460501    45550.257 
     115            0    10301.542   -1877.6506   -780.39557   -1692.4065   -3160.1498   0.91061085   -8.4581164     1012.774    37.896639    39.459637    30.460501    45550.257 
     116            0    10301.524   -1854.4986   -771.74804   -1679.5223   -3112.2254    1.0655895   -6.7486411    997.51174    37.896639    39.459637    30.460501    45550.257 
     117            0    10301.496   -1839.5509   -761.75931   -1686.2899   -3070.6034   0.69141806   -12.917929    1002.1212    37.896639    39.459637    30.460501    45550.257 
     118            0    10301.447    -1839.873   -760.33053   -1709.4392   -3049.8494  0.032001787    -15.49953    1012.9985    37.896639    39.459637    30.460501    45550.257 
     119            0    10301.432   -1851.3152   -768.32001   -1715.6679   -3069.9576   0.74725335   -10.251113    1014.4421    37.896639    39.459637    30.460501    45550.257 
     120            0    10301.429   -1856.0787   -772.33928   -1713.9443   -3081.9524    1.5282634   -8.8989138    1015.7585    37.896639    39.459637    30.460501    45550.257 
     121            0    10301.425   -1858.4137   -777.93457   -1711.9563   -3085.3503    1.6692649   -9.0277295    1016.5936    37.896639    39.459637    30.460501    45550.257 
     122            0    10301.421   -1861.5717   -785.22702   -1709.2386   -3090.2495   0.81550608   -10.532197    1017.7156    37.896639    39.459637    30.460501    45550.257 
     123            0    10301.414   -1873.0273   -802.47676   -1709.1242    -3107.481  -0.11265134   -12.385425    1019.6073    37.896639    39.459637    30.460501    45550.257 
     124            0    10301.395   -1889.5017   -821.72898   -1714.7117   -3132.0644     1.739521    -8.184124    1016.7601    37.896639    39.459637    30.460501    45550.257 
     125            0    10301.364   -1891.0999   -828.41581   -1718.6377   -3126.2463    2.8384086   -5.9127277    1012.5749    37.896639    39.459637    30.460501    45550.257 
     126            0    10301.348   -1864.3505    -806.9353   -1711.8968   -3074.2194   0.21802804   -11.890439    1010.3114    37.896639    39.459637    30.460501    45550.257 
     127            0     10301.34   -1841.4751   -781.70422   -1703.3937   -3039.3275  0.072800341   -12.112612    1004.2109    37.896639    39.459637    30.460501    45550.257 
     128            0    10301.334   -1829.8495   -764.80412   -1696.2568   -3028.4874    1.4145781   -8.8876078    999.83351    37.896639    39.459637    30.460501    45550.257 
     129            0     10301.33   -1824.9418   -758.32011   -1692.4612   -3024.0442    1.6258838   -8.1486435    1001.3162    37.896639    39.459637    30.460501    45550.257 
     130            0    10301.326   -1819.1507   -754.47567   -1691.9847   -3010.9918    1.1621898   -9.8500543    1007.6457    37.896639    39.459637    30.460501    45550.257 
     131            0    10301.321   -1824.2318   -766.75666   -1695.4168   -3010.5219   0.95161201   -12.178695    1016.3983    37.896639    39.459637    30.460501    45550.257 
     132            0    10301.313   -1840.3974   -792.05152   -1705.0848    -3024.056    1.2333862   -10.621411    1023.8001    37.896639    39.459637    30.460501    45550.257 
     133            0    10301.301   -1852.4376   -818.18364   -1712.2433   -3026.8857    2.2360118    -6.424728    1020.8933    37.896639    39.459637    30.460501    45550.257 
     134            0    10301.278   -1853.4405   -832.42163   -1698.6568   -3029.2432    2.7130332   -6.9461722    1006.9903    37.896639    39.459637    30.460501    45550.257 
     135            0    10301.246   -1853.9351   -841.20709   -1685.8308   -3034.7673   0.38278261   -11.324974    996.69844    37.896639    39.459637    30.460501    45550.257 
     136            0    10301.215   -1846.6649   -826.26718   -1672.7978   -3040.9296   0.33602046   -11.323411    1000.1795    37.896639    39.459637    30.460501    45550.257 
     137            0      10301.2   -1826.7626   -802.08452   -1665.6181   -3012.5852   0.94368123   -9.4871465    999.81294    37.896639    39.459637    30.460501    45550.257 
     138            0    10301.179   -1793.4335   -767.12015   -1655.9452   -2957.2353    2.2353605   -6.7467357    994.40646    37.896639    39.459637    30.460501    45550.257 
     139            0    10301.167   -1788.1698   -762.46743   -1652.9325   -2949.1094    1.8409946   -8.0033974    991.45861    37.896639    39.459637    30.460501    45550.257 
     140            0    10301.158    -1783.676   -755.99709   -1651.0136   -2944.0174  -0.19546274   -11.926195    988.72949    37.896639    39.459637    30.460501    45550.257 
     141            0    10301.155    -1786.175   -757.37349   -1654.4163   -2946.7351   0.65247221   -10.217294    991.57139    37.896639    39.459637    30.460501    45550.257 
     142            0    10301.153   -1790.8154   -764.29617   -1659.8009   -2948.3493    1.9345261   -7.7903234    996.41352    37.896639    39.459637    30.460501    45550.257 
     143            0    10301.152   -1794.4162   -772.83937   -1663.9239   -2946.4854    1.5865554    -8.794268    999.13191    37.896639    39.459637    30.460501    45550.257 
     144            0    10301.151   -1796.3465   -779.73626   -1666.3713    -2942.932   0.80357233   -11.515807     997.5171    37.896639    39.459637    30.460501    45550.257 
     145            0    10301.147    -1790.691   -782.86225   -1666.9841   -2922.2268   0.76825077   -11.527197    991.38761    37.896639    39.459637    30.460501    45550.257 
     146            0    10301.144   -1780.8322    -783.2042   -1665.1594    -2894.133    1.1507778   -9.0958468    985.45937    37.896639    39.459637    30.460501    45550.257 
     147            0     10301.14   -1769.2789   -781.63887   -1658.3603   -2867.8376    2.4112895   -6.7253186    978.02539    37.896639    39.459637    30.460501    45550.257 
     148            0    10301.134   -1762.6693   -783.57867   -1653.3664   -2851.0628    2.1865559   -9.7663139    976.14575    37.896639    39.459637    30.460501    45550.257 
     149            0    10301.127   -1759.8011   -800.42002   -1650.4908   -2828.4924   -0.5949374   -14.926188    983.06162    37.896639    39.459637    30.460501    45550.257 
     150            0    10301.112   -1759.5043   -817.09038   -1651.9948   -2809.4277  -0.96010024   -14.180179    987.02482    37.896639    39.459637    30.460501    45550.257 
     151            0    10301.102   -1755.2862   -810.38087   -1657.3291   -2798.1487    2.2189849   -8.2233651    982.13203    37.896639    39.459637    30.460501    45550.257 
     152            0    10301.096   -1748.9581   -797.95525   -1659.2974   -2789.6217    3.2124709   -5.1538299    980.30438    37.896639    39.459637    30.460501    45550.257 
     153            0    10301.086   -1745.6143   -775.54585   -1657.5656   -2803.7313   0.97340299   -9.0303736    980.51444    37.896639    39.459637    30.460501    45550.257 
     154            0    10301.079   -1748.9003   -761.01124   -1650.0984   -2835.5912   -0.2054534   -13.111882    979.60911    37.896639    39.459637    30.460501    45550.257 
     155            0    10301.071   -1753.8537   -757.92914   -1632.1969   -2871.4351    0.4064254   -11.854106    981.69131    37.896639    39.459637    30.460501    45550.257 
     156            0    10301.068   -1756.4991   -759.32444   -1625.4613   -2884.7115    1.4542362   -8.7139072    984.10318    37.896639    39.459637    30.460501    45550.257 
     157            0    10301.065   -1757.0372    -756.6065   -1624.4342   -2890.0708    2.2421481   -7.4663174    985.02527    37.896639    39.459637    30.460501    45550.257 
     158            0    10301.062   -1755.8332   -758.61277   -1621.5288   -2887.3581    1.5841824    -9.406959    987.33932    37.896639    39.459637    30.460501    45550.257 
     159            0    10301.059   -1757.2435   -768.58918   -1620.3098   -2882.8317   0.29523347   -11.464549    990.70016    37.896639    39.459637    30.460501    45550.257 
     160            0    10301.055   -1763.2415    -782.9581   -1623.9845   -2882.7817    0.8206685   -9.9265558    992.64231    37.896639    39.459637    30.460501    45550.257 
     161            0    10301.053    -1766.101   -794.68178   -1623.9624   -2879.6588    1.8495774   -8.2986061    994.15757    37.896639    39.459637    30.460501    45550.257 
     162            0     10301.05    -1764.129   -802.14473   -1621.2054   -2869.0369    1.8170352   -9.4282153    991.87986    37.896639    39.459637    30.460501    45550.257 
     163            0    10301.047   -1760.9163   -804.41998   -1621.0188   -2857.3101    1.2487046   -10.912989    985.53701    37.896639    39.459637    30.460501    45550.257 
     164            0    10301.043   -1749.0028   -804.98529   -1620.1634   -2821.8598   0.82628451   -9.6376812    982.05618    37.896639    39.459637    30.460501    45550.257 
     165            0    10301.038   -1736.1586   -800.61822    -1619.171   -2788.6866   0.71708407   -8.5738071    981.41601    37.896639    39.459637    30.460501    45550.257 
     166            0     10301.03   -1722.0241   -778.01556   -1620.9037    -2767.153    1.6355567   -9.9912856    978.29652    37.896639    39.459637    30.460501    45550.257 
     167            0    10301.026   -1716.3848   -768.68938   -1618.3512    -2762.114    2.1097756    -11.22629    975.29384    37.896639    39.459637    30.460501    45550.257 
     168            0    10301.022   -1712.3833   -770.76279   -1610.9556   -2755.4314    1.3619689   -9.9653503    974.17667    37.896639    39.459637    30.460501    45550.257 
     169            0    10301.019   -1714.5988   -774.81223    -1609.403   -2759.5813   0.43433291   -7.8653708    973.92842    37.896639    39.459637    30.460501    45550.257 
     170            0    10301.012   -1726.9861   -779.44688   -1615.1612   -2786.3503   0.27143281   -7.7421484    973.61069    37.896639    39.459637    30.460501    45550.257 
     171            0    10301.007   -1734.4255   -783.58415   -1618.4756   -2801.2167    1.4752335   -10.527699    975.99397    37.896639    39.459637    30.460501    45550.257 
     172            0    10301.003   -1739.3066   -788.90251   -1617.1128   -2811.9045    2.0492511    -11.04125    979.35342    37.896639    39.459637    30.460501    45550.257 
     173            0        10301   -1740.9656   -790.25911   -1608.5729   -2824.0649    1.3265512   -9.1747021    980.97159    37.896639    39.459637    30.460501    45550.257 
     174            0    10300.998   -1738.9554   -790.85686    -1603.536   -2822.4732    1.0364057   -8.7819923    981.07539    37.896639    39.459637    30.460501    45550.257 
     175            0    10300.995    -1733.216   -795.56076   -1601.9664   -2802.1207     1.292872    -9.880479    979.99274    37.896639    39.459637    30.460501    45550.257 
     176            0    10300.994   -1728.2056   -796.85359   -1599.3448   -2788.4184    1.2785031   -10.361405    978.59659    37.896639    39.459637    30.460501    45550.257 
     177            0    10300.992   -1719.7729   -791.79903   -1590.7378   -2776.7818    1.3063731   -9.5932051    978.41175    37.896639    39.459637    30.460501    45550.257 
     178            0    10300.991   -1715.0817   -786.15987   -1584.8299   -2774.2552    1.3575916   -9.0184377    980.08713    37.896639    39.459637    30.460501    45550.257 
     179            0    10300.991   -1716.3958   -783.00861   -1583.6764   -2782.5024    1.0885729   -9.7962458    983.07369    37.896639    39.459637    30.460501    45550.257 
     180            0     10300.99   -1717.6914   -788.09585    -1586.027   -2778.9513    1.0528291    -10.46263    982.34575    37.896639    39.459637    30.460501    45550.257 
     181            0    10300.989   -1717.4278   -794.56686   -1588.4961   -2769.2204    1.2757611   -9.6986643    979.63108    37.896639    39.459637    30.460501    45550.257 
     182            0    10300.988   -1717.4557   -796.54415   -1589.7525   -2766.0703    1.4779119   -8.8757136    977.31145    37.896639    39.459637    30.460501    45550.257 
     183            0    10300.987   -1718.2341   -796.54298   -1590.7178   -2767.4414    1.5273211   -9.3897725    975.58443    37.896639    39.459637    30.460501    45550.257 
     184            0    10300.986   -1718.9598   -795.00173   -1590.0904   -2771.7874    1.1714443   -10.500029    974.95261    37.896639    39.459637    30.460501    45550.257 
     185            0    10300.986   -1718.6206    -793.2897   -1590.4264   -2772.1456    1.1827056   -10.340927    974.43369    37.896639    39.459637    30.460501    45550.257 
     186            0    10300.985   -1716.1022   -792.49593   -1593.9203   -2761.8904    1.8203272   -8.9484101    973.65221    37.896639    39.459637    30.460501    45550.257 
     187            0    10300.984   -1714.0101   -794.96464   -1596.6459   -2750.4198    1.7402358   -8.7631311    971.89342    37.896639    39.459637    30.460501    45550.257 
     188            0    10300.982   -1712.3331   -797.89016   -1599.1658   -2739.9433   0.88982465   -10.053769    968.89596    37.896639    39.459637    30.460501    45550.257 
     189            0    10300.981   -1708.5589   -791.21725   -1598.8371   -2735.6223   0.81179233   -10.547811    972.45567    37.896639    39.459637    30.460501    45550.257 
     190            0    10300.979   -1703.6893   -782.24724   -1594.4416    -2734.379    1.2609608   -10.136989    981.36837    37.896639    39.459637    30.460501    45550.257 
     191            0    10300.978   -1707.8144   -787.26334   -1590.6533   -2745.5265    1.5813675   -9.0279923    985.96424    37.896639    39.459637    30.460501    45550.257 
     192            0    10300.976   -1719.1878   -804.78831   -1589.4778   -2763.2975    1.1892349   -8.3786453    985.62102    37.896639    39.459637    30.460501    45550.257 
     193            0    10300.975   -1722.2694   -817.12779    -1587.127   -2762.5533   0.90052315    -9.545426    983.49917    37.896639    39.459637    30.460501    45550.257 
     194            0    10300.974   -1720.1179    -817.6718   -1584.1479    -2758.534    1.2225603   -10.516416    981.15264    37.896639    39.459637    30.460501    45550.257 
     195            0    10300.973   -1716.2708   -801.07648   -1578.0775   -2769.6584    1.8580089   -9.4166764     978.0193    37.896639    39.459637    30.460501    45550.257 
     196            0    10300.972   -1714.3588   -795.29199   -1572.8042   -2774.9801    1.5059469   -9.0362055    976.97408    37.896639    39.459637    30.460501    45550.257 
     197            0    10300.971   -1713.7338     -800.973   -1571.9704   -2768.2581   0.87829779   -9.8231374    973.53096    37.896639    39.459637    30.460501    45550.257 
     198            0     10300.97   -1713.1727   -805.69965   -1574.5398   -2759.2787    1.0690014   -10.035375    969.98386    37.896639    39.459637    30.460501    45550.257 
     199            0    10300.969    -1710.399   -808.41833   -1578.0097    -2744.769    1.7298423   -9.7771014    969.39518    37.896639    39.459637    30.460501    45550.257 
     200            0    10300.969   -1706.9653   -808.26497   -1579.0655   -2733.5653    1.7929694   -9.6209494    971.38226    37.896639    39.459637    30.460501    45550.257 
     201            0    10300.969   -1703.5102   -805.01974   -1578.3605   -2727.1502    1.4627393   -9.4931562    974.19433    37.896639    39.459637    30.460501    45550.257 
     202            0    10300.968   -1701.8316   -803.37037   -1578.0304    -2724.094    1.1387231   -9.9294046    976.23234    37.896639    39.459637    30.460501    45550.257 
     203            0    10300.968   -1702.0214    -804.9369   -1579.3785   -2721.7488    1.1425057   -10.063684    976.53927    37.896639    39.459637    30.460501    45550.257 
     204            0    10300.967   -1705.9212   -811.64447   -1584.5196   -2721.5996    1.5646543   -9.1611217    973.73891    37.896639    39.459637    30.460501    45550.257 
     205            0    10300.967   -1708.3223   -815.18383   -1585.9444   -2723.8387    1.4613747   -9.1873383    972.50608    37.896639    39.459637    30.460501    45550.257 
     206            0    10300.967   -1709.3148   -815.11786   -1584.6993   -2728.1272    1.0183943   -9.9226992     972.8388    37.896639    39.459637    30.460501    45550.257 
     207            0    10300.966   -1709.3201   -810.35913   -1583.7316   -2733.8696   0.91800122   -10.148016    974.49049    37.896639    39.459637    30.460501    45550.257 
     208            0    10300.966   -1710.6826   -805.37496   -1584.2349   -2742.4381    1.3202583   -9.6449797    976.33424    37.896639    39.459637    30.460501    45550.257 
     209            0    10300.966   -1712.7341   -809.86957   -1585.5352   -2742.7974    1.6664103   -9.2744031    974.76944    37.896639    39.459637    30.460501    45550.257 
     210            0    10300.966   -1712.7341   -809.86957   -1585.5352   -2742.7974    1.6664103   -9.2744031    974.76944    37.896639    39.459637    30.460501    45550.257 
Loop time of 2.12215 on 8 procs for 201 steps with 3712 atoms

99.6% CPU use with 8 MPI tasks x 1 OpenMP threads

Minimization stats:
  Stopping criterion = linesearch alpha is zero
  Energy initial, next-to-last, final = 
      10402.4521699293   10300.9655190696   10300.9655190696
  Force two-norm initial, final = 359.89668 1.3739410
  Force max component initial, final = 12.823917 0.17225070
  Final line search alpha, max atom move = 4.2069205e-09 7.2464499e-10
  Iterations, force evaluations = 201 358

MPI task timing breakdown:
Section |  min time  |  avg time  |  max time  |%varavg| %total
---------------------------------------------------------------
Pair    | 1.1526     | 1.5617     | 1.9596     |  23.1 | 73.59
Bond    | 0.072578   | 0.07684    | 0.079283   |   0.8 |  3.62
Neigh   | 0          | 0          | 0          |   0.0 |  0.00
Comm    | 0.044885   | 0.44408    | 0.85359    |  43.2 | 20.93
Output  | 0.0072267  | 0.0095981  | 0.02418    |   5.6 |  0.45
Modify  | 0          | 0          | 0          |   0.0 |  0.00
Other   |            | 0.02989    |            |       |  1.41

Nlocal:        464.000 ave         464 max         464 min
Histogram: 8 0 0 0 0 0 0 0 0 0
Nghost:        7081.00 ave        7082 max        7080 min
Histogram: 4 0 0 0 0 0 0 0 0 4
Neighs:        193886.0 ave      245712 max      142074 min
Histogram: 1 1 1 1 0 0 1 1 1 1

Total # of neighbors = 1551092
Ave neighs/atom = 417.85884
Ave special neighs/atom = 13.034483
Neighbor list builds = 0
Dangerous builds = 0

# Obtain new stress tensor

variable tmp equal pe
variable e1 equal ${tmp}
variable e1 equal 10300.9655190696
variable tmp equal press
variable p1 equal ${tmp}
variable p1 equal -1712.734071096
variable tmp equal pxx
variable pxx1 equal ${tmp}
variable pxx1 equal -809.869568842684
variable tmp equal pyy
variable pyy1 equal ${tmp}
variable pyy1 equal -1585.53519821805
variable tmp equal pzz
variable pzz1 equal ${tmp}
variable pzz1 equal -2742.79744622727
variable tmp equal pxy
variable pxy1 equal ${tmp}
variable pxy1 equal 1.6664102786513
variable tmp equal pxz
variable pxz1 equal ${tmp}
variable pxz1 equal -9.27440309319416
variable tmp equal pyz
variable pyz1 equal ${tmp}
variable pyz1 equal 974.769435843476

# Compute elastic constant from pressure tensor

variable C1pos equal ${d1}
variable C1pos equal 8.2331871972751
variable C2pos equal ${d2}
variable C2pos equal 16.0803975098398
variable C3pos equal ${d3}
variable C3pos equal 27.8288211829426
variable C4pos equal ${d4}
variable C4pos equal -9.54377768798528
variable C5pos equal ${d5}
variable C5pos equal 0.00824303150658693
variable C6pos equal ${d6}
variable C6pos equal -0.0240147936721686

# Combine positive and negative

variable C1${dir} equal 0.5*(${C1neg}+${C1pos})
variable C13 equal 0.5*(${C1neg}+${C1pos})
variable C13 equal 0.5*(7.89733430832521+${C1pos})
variable C13 equal 0.5*(7.89733430832521+8.2331871972751)
variable C2${dir} equal 0.5*(${C2neg}+${C2pos})
variable C23 equal 0.5*(${C2neg}+${C2pos})
variable C23 equal 0.5*(11.5320225625472+${C2pos})
variable C23 equal 0.5*(11.5320225625472+16.0803975098398)
variable C3${dir} equal 0.5*(${C3neg}+${C3pos})
variable C33 equal 0.5*(${C3neg}+${C3pos})
variable C33 equal 0.5*(29.5191477461772+${C3pos})
variable C33 equal 0.5*(29.5191477461772+27.8288211829426)
variable C4${dir} equal 0.5*(${C4neg}+${C4pos})
variable C43 equal 0.5*(${C4neg}+${C4pos})
variable C43 equal 0.5*(-10.6038492967846+${C4pos})
variable C43 equal 0.5*(-10.6038492967846+-9.54377768798528)
variable C5${dir} equal 0.5*(${C5neg}+${C5pos})
variable C53 equal 0.5*(${C5neg}+${C5pos})
variable C53 equal 0.5*(-0.0160840102948164+${C5pos})
variable C53 equal 0.5*(-0.0160840102948164+0.00824303150658693)
variable C6${dir} equal 0.5*(${C6neg}+${C6pos})
variable C63 equal 0.5*(${C6neg}+${C6pos})
variable C63 equal 0.5*(0.0116371787337208+${C6pos})
variable C63 equal 0.5*(0.0116371787337208+-0.0240147936721686)

# Delete dir to make sure it is not reused

variable dir delete

# uyz Perturbation

variable dir equal 4
include displace.mod
# NOTE: This script should not need to be
# modified. See in.elastic for more info.
#
# Find which reference length to use

if "${dir} == 1" then    "variable len0 equal ${lx0}"
if "${dir} == 2" then    "variable len0 equal ${ly0}"
if "${dir} == 3" then    "variable len0 equal ${lz0}"
if "${dir} == 4" then    "variable len0 equal ${lz0}"
variable len0 equal ${lz0}
variable len0 equal 30.1589120660827
if "${dir} == 5" then    "variable len0 equal ${lz0}"
if "${dir} == 6" then    "variable len0 equal ${ly0}"

# Reset box and simulation parameters

clear
OMP_NUM_THREADS environment is not set. Defaulting to 1 thread. (src/lammps-master/src/comm.cpp:94)
  using 1 OpenMP thread(s) per MPI task
box tilt large
read_restart restart.equil
Reading restart file ...
  restart file = 30 Nov 2020, LAMMPS = 30 Nov 2020
  restoring atom style full from restart
  triclinic box = (-0.00043121516 0.0048660643 -9.7033041e-05) to (37.896208 39.464503 30.158815) with tilt (0.0020704893 0.0037010238 -1.2416220)
  2 by 2 by 2 MPI processor grid
  restoring pair style lj/cut from restart
  restoring bond style harmonic from restart
  restoring angle style hybrid from restart
  restoring dihedral style harmonic from restart
  restoring improper style fourier from restart
  3712 atoms
  4096 bonds
  7808 angles
  9856 dihedrals
  3072 impropers
Finding 1-2 1-3 1-4 neighbors ...
  special bond factors lj:    0        0        1       
  special bond factors coul:  0        0        0       
     4 = max # of 1-2 neighbors
     8 = max # of 1-3 neighbors
    21 = max # of 1-4 neighbors
    25 = max # of special neighbors
  special bonds CPU = 0.001 seconds
  read_restart CPU = 0.004 seconds
include potential.mod
pair_style      lj/cut 12.5
bond_style      harmonic
angle_style     hybrid cosine/periodic fourier
dihedral_style  harmonic
improper_style  fourier


special_bonds   lj 0.0 0.0 1.0
pair_modify     tail yes mix arithmetic
include data.pair
bond_coeff     1      154.048673        1.928536  # Zn3f2 N_R
bond_coeff     2      122.127512        2.014866  # Zn3f2 O_2
bond_coeff     3      153.811316        1.929528  # Zn3f2 N_3
bond_coeff     4      527.945261        1.044419  # H_ N_3
bond_coeff     5      357.440381        1.081418  # H_ C_R
bond_coeff     6      331.069389        1.109401  # H_ C_3
bond_coeff     7      529.459447        1.043423  # H_ N_R
bond_coeff     8      663.718927        1.345073  # C_R N_R
bond_coeff     9      462.655054        1.379256  # C_R C_R
bond_coeff    10      369.943935        1.486000  # C_R C_3
bond_coeff    11      714.557442        1.269010  # C_R O_2
bond_coeff    12      646.680887        1.311940  # C_R O_R
bond_coeff    13      349.795899        1.514000  # C_3 C_3
bond_coeff    14      529.724731        1.450075  # C_3 N_R
bond_coeff    15      528.634538        1.451071  # C_3 N_3
angle_coeff     1                      fourier      183.483089        0.343737        0.374972        0.281246 # N_R Zn3f2 N_R
angle_coeff     2                      fourier      155.087435        0.343737        0.374972        0.281246 # N_R Zn3f2 O_2
angle_coeff     3                      fourier      183.341639        0.343737        0.374972        0.281246 # N_R Zn3f2 N_3
angle_coeff     4                      fourier      154.973760        0.343737        0.374972        0.281246 # O_2 Zn3f2 N_3
angle_coeff     5              cosine/periodic      159.573934              -1               3 # H_ C_R N_R
angle_coeff     6              cosine/periodic      424.885146              -1               3 # N_R C_R N_R
angle_coeff     7              cosine/periodic      114.578032              -1               3 # H_ C_R C_R
angle_coeff     8              cosine/periodic      307.398705              -1               3 # C_R C_R N_R
angle_coeff     9              cosine/periodic      198.274298              -1               3 # C_R C_R C_3
angle_coeff    10              cosine/periodic      273.097456              -1               3 # C_3 C_R N_R
angle_coeff    11              cosine/periodic      393.120049              -1               3 # O_2 C_R O_R
angle_coeff    12              cosine/periodic      266.629989              -1               3 # O_2 C_R C_3
angle_coeff    13              cosine/periodic      255.317313              -1               3 # O_R C_R C_3
angle_coeff    14                      fourier      117.318683        0.343737        0.374972        0.281246 # H_ C_3 C_3
angle_coeff    15                      fourier      170.007371        0.343737        0.374972        0.281246 # H_ C_3 N_R
angle_coeff    16                      fourier      121.777217        0.343737        0.374972        0.281246 # H_ C_3 C_R
angle_coeff    17                      fourier      303.594562        0.343737        0.374972        0.281246 # C_3 C_3 N_R
angle_coeff    18                      fourier      220.229931        0.343737        0.374972        0.281246 # C_3 C_3 C_R
angle_coeff    19                      fourier      312.548166        0.343737        0.374972        0.281246 # N_R C_3 C_R
angle_coeff    20                      fourier       75.498766        0.343737        0.374972        0.281246 # H_ C_3 H_
angle_coeff    21                      fourier      169.780468        0.343737        0.374972        0.281246 # H_ C_3 N_3
angle_coeff    22                      fourier      303.297032        0.343737        0.374972        0.281246 # C_3 C_3 N_3
angle_coeff    23              cosine/periodic      398.603153              -1               3 # N_R C_R O_R
angle_coeff    24                      fourier       51.536168        0.317506        0.313225        0.272502 # Zn3f2 N_3 H_
angle_coeff    25                      fourier      108.360206        0.317506        0.313225        0.272502 # Zn3f2 N_3 C_3
angle_coeff    26                      fourier       97.017167        0.317506        0.313225        0.272502 # H_ N_3 H_
angle_coeff    27                      fourier      144.695053        0.317506        0.313225        0.272502 # H_ N_3 C_3
angle_coeff    28              cosine/periodic       87.429320              -1               3 # Zn3f2 N_R C_R
angle_coeff    29              cosine/periodic      240.001032              -1               3 # C_R N_R C_R
angle_coeff    30              cosine/periodic      108.417222              -1               3 # H_ N_R C_3
angle_coeff    31              cosine/periodic      125.071223              -1               3 # H_ N_R C_R
angle_coeff    32              cosine/periodic      213.564697              -1               3 # C_3 N_R C_R
angle_coeff    33              cosine/periodic       84.412329              -1               3 # Zn3f2 O_2 C_R
dihedral_coeff     1        1.497136              -1               2 # H_ C_R N_R Zn3f2
dihedral_coeff     2        0.083333               1               3 # C_R C_R C_3 C_3
dihedral_coeff     3        2.245703              -1               2 # O_R C_R O_2 Zn3f2
dihedral_coeff     4        0.066219               1               3 # H_ C_3 C_3 C_R
dihedral_coeff     5        0.416667              -1               2 # H_ C_3 N_R H_
dihedral_coeff     6        0.030516               1               3 # H_ C_3 N_3 Zn3f2
improper_coeff     1        2.000000        1.000000       -1.000000        0.000000               0 # H_ C_R N_R N_R
pair_coeff 1 1 0.124 2.461553
pair_coeff 1 2 0.07386474125047755 2.5163434999999996
pair_coeff 1 3 0.11410521460476729 2.946202
pair_coeff 1 4 0.11410521460476729 2.946202
pair_coeff 1 5 0.09249864863877742 2.861121
pair_coeff 1 6 0.09249864863877742 2.861121
pair_coeff 1 7 0.08625543461139129 2.7898495
pair_coeff 1 8 0.08625543461139129 2.7898495
pair_coeff 2 2 0.044 2.571134
pair_coeff 2 3 0.0679705818718657 3.0009924999999997
pair_coeff 2 4 0.0679705818718657 3.0009924999999997
pair_coeff 2 5 0.05509990925582364 2.9159115
pair_coeff 2 6 0.05509990925582364 2.9159115
pair_coeff 2 7 0.05138093031466051 2.84464
pair_coeff 2 8 0.05138093031466051 2.84464
pair_coeff 3 3 0.105 3.430851
pair_coeff 3 4 0.105 3.430851
pair_coeff 3 5 0.08511756575466665 3.34577
pair_coeff 3 6 0.08511756575466665 3.34577
pair_coeff 3 7 0.07937253933193772 3.2744985
pair_coeff 3 8 0.07937253933193772 3.2744985
pair_coeff 4 4 0.105 3.430851
pair_coeff 4 5 0.08511756575466665 3.34577
pair_coeff 4 6 0.08511756575466665 3.34577
pair_coeff 4 7 0.07937253933193772 3.2744985
pair_coeff 4 8 0.07937253933193772 3.2744985
pair_coeff 5 5 0.069 3.2606889999999997
pair_coeff 5 6 0.069 3.2606889999999997
pair_coeff 5 7 0.06434283176858166 3.1894175
pair_coeff 5 8 0.06434283176858166 3.1894175
pair_coeff 6 6 0.069 3.2606889999999997
pair_coeff 6 7 0.06434283176858166 3.1894175
pair_coeff 6 8 0.06434283176858166 3.1894175
pair_coeff 7 7 0.06 3.118146
pair_coeff 7 8 0.06 3.118146
pair_coeff 8 8 0.06 3.118146

# Setup neighbor style
neighbor 1.0 nsq
neigh_modify once no every 1 delay 0 check yes

# Setup minimization style
min_style	     cg
min_modify	     dmax ${dmax} line quadratic
min_modify	     dmax 0.001 line quadratic

# Setup output
thermo		1
thermo_style custom step temp pe press pxx pyy pzz pxy pxz pyz lx ly lz vol
thermo_modify norm no

# Negative deformation

variable delta equal -${up}*${len0}
variable delta equal -0.01*${len0}
variable delta equal -0.01*30.1589120660827
variable deltaxy equal -${up}*xy
variable deltaxy equal -0.01*xy
variable deltaxz equal -${up}*xz
variable deltaxz equal -0.01*xz
variable deltayz equal -${up}*yz
variable deltayz equal -0.01*yz
if "${dir} == 1" then    "change_box all x delta 0 ${delta} xy delta ${deltaxy} xz delta ${deltaxz} remap units box"
if "${dir} == 2" then    "change_box all y delta 0 ${delta} yz delta ${deltayz} remap units box"
if "${dir} == 3" then    "change_box all z delta 0 ${delta} remap units box"
if "${dir} == 4" then    "change_box all yz delta ${delta} remap units box"
change_box all yz delta ${delta} remap units box
change_box all yz delta -0.301589120660827 remap units box
Changing box ...
  triclinic box = (-0.00043121516 0.0048660643 -9.7033041e-05) to (37.896208 39.464503 30.158815) with tilt (0.0020704893 0.0037010238 -1.5432111)
if "${dir} == 5" then    "change_box all xz delta ${delta} remap units box"
if "${dir} == 6" then    "change_box all xy delta ${delta} remap units box"

# Relax atoms positions

minimize ${etol} ${ftol} ${maxiter} ${maxeval}
minimize 1e-10 ${ftol} ${maxiter} ${maxeval}
minimize 1e-10 1e-10 ${maxiter} ${maxeval}
minimize 1e-10 1e-10 100000 ${maxeval}
minimize 1e-10 1e-10 100000 10000000
Neighbor list info ...
  update every 1 steps, delay 0 steps, check yes
  max neighbors/atom: 2000, page size: 100000
  master list distance cutoff = 13.5
  ghost atom cutoff = 13.5
  1 neighbor lists, perpetual/occasional/extra = 1 0 0
  (1) pair lj/cut, perpetual
      attributes: half, newton on
      pair build: half/nsq/newton
      stencil: none
      bin: none
WARNING: Inconsistent image flags (src/lammps-master/src/domain.cpp:812)
Per MPI rank memory allocation (min/avg/max) = 18.81 | 19.00 | 19.19 Mbytes
Step Temp PotEng Press Pxx Pyy Pzz Pxy Pxz Pyz Lx Ly Lz Volume 
       9            0    10325.447   -338.18867    317.89369    461.69527    -1794.155  -0.32702853    -8.483065    10105.254    37.896639    39.459637    30.158912    45099.264 
      10            0    10320.605   -188.04111    231.56386    727.89346   -1523.5807  -0.25803989   -7.9571544    9215.3865    37.896639    39.459637    30.158912    45099.264 
      11            0    10316.674   -7.0073433    149.20733    1009.4366    -1179.666 0.0053477579   -7.7329595    8238.9408    37.896639    39.459637    30.158912    45099.264 
      12            0     10314.05    132.29676    169.68286    1169.9641   -942.75662   0.42003118   -8.1048335    7531.0612    37.896639    39.459637    30.158912    45099.264 
      13            0    10311.908    241.02299     251.0419    1272.8146   -800.78752   0.60887554   -8.4223439     6929.313    37.896639    39.459637    30.158912    45099.264 
      14            0    10310.311    286.21613    278.40138       1333.6   -753.35301   0.78712187   -8.5862722    6480.0885    37.896639    39.459637    30.158912    45099.264 
      15            0    10309.011    328.95778    348.25809    1324.5642   -685.94892   0.90039043   -8.8195658    6065.5339    37.896639    39.459637    30.158912    45099.264 
      16            0    10308.065    303.00681    262.22114    1362.9345   -716.13519    1.2261861   -8.9083812    5731.2712    37.896639    39.459637    30.158912    45099.264 
      17            0    10306.988     319.2794    290.29722     1319.891   -652.35002    1.3242332   -9.1285064    5402.6603    37.896639    39.459637    30.158912    45099.264 
      18            0    10306.312    324.05106    339.84457    1234.9281   -602.61949    1.4023216   -9.3949949    5098.2396    37.896639    39.459637    30.158912    45099.264 
      19            0    10305.504     278.0549    230.06308    1224.9604    -620.8588    1.6504985   -9.4894227    4884.9162    37.896639    39.459637    30.158912    45099.264 
      20            0    10304.929    259.98089    199.47615     1155.883   -575.41648    1.7466587   -9.6565005    4673.8589    37.896639    39.459637    30.158912    45099.264 
      21            0    10304.319    224.87834     151.1399    1135.0967   -611.60158    1.9404876    -9.796875    4426.9247    37.896639    39.459637    30.158912    45099.264 
      22            0    10303.764    206.03228    128.07035     1077.824    -587.7975    2.0218941    -9.950393      4226.12    37.896639    39.459637    30.158912    45099.264 
      23            0    10303.316    135.98879    42.678744    966.43785   -601.15024    2.2039094    -10.07204    4038.5337    37.896639    39.459637    30.158912    45099.264 
      24            0    10302.701    110.78458    40.477518    923.58356   -631.70735    2.1584898   -10.150264     3858.824    37.896639    39.459637    30.158912    45099.264 
      25            0    10302.346     79.61919    42.027735    821.27755   -624.44772     2.247801   -10.262751    3619.0437    37.896639    39.459637    30.158912    45099.264 
      26            0    10301.889     19.12534    3.9688556    720.39399   -666.98682    2.2659594   -10.371741    3432.1704    37.896639    39.459637    30.158912    45099.264 
      27            0    10301.768   -9.3579024   -34.235477    717.28608   -711.12431    2.2255567   -10.344365    3458.8761    37.896639    39.459637    30.158912    45099.264 
      28            0    10301.596   -101.23718   -138.42693    634.85146   -800.13606    2.2808166   -10.047083    3334.8588    37.896639    39.459637    30.158912    45099.264 
      29            0    10301.238   -160.23381   -156.83126    528.50647   -852.37663    2.1359116   -9.9771636    3198.1227    37.896639    39.459637    30.158912    45099.264 
      30            0    10301.117   -128.95124   -81.421929    517.19562   -822.62741    2.0565587   -10.218611    3207.9731    37.896639    39.459637    30.158912    45099.264 
      31            0    10301.072    -138.2605   -66.819551    483.30279   -831.26475    2.2627425   -10.412505    3190.4417    37.896639    39.459637    30.158912    45099.264 
      32            0    10300.859   -208.60922   -114.82537    379.49207   -890.49437    2.4246901   -10.690123     3104.461    37.896639    39.459637    30.158912    45099.264 
      33            0    10300.738   -216.77897   -162.54311     412.9142   -900.70801    1.8066359   -10.040677    2994.9414    37.896639    39.459637    30.158912    45099.264 
      34            0    10300.642   -226.98885   -172.00433    405.20148   -914.16371    1.5831115   -9.5641832    2890.4102    37.896639    39.459637    30.158912    45099.264 
      35            0    10300.413   -254.36358   -108.09974    287.28886   -942.27984    1.9140432   -9.8939369    2870.5192    37.896639    39.459637    30.158912    45099.264 
      36            0    10300.353    -274.5478   -106.12051    243.48281    -961.0057    2.0145725   -10.188001    2891.5292    37.896639    39.459637    30.158912    45099.264 
      37            0    10300.319   -305.76254   -147.60563    217.81313   -987.49512    2.1584593   -10.351617    2873.7017    37.896639    39.459637    30.158912    45099.264 
      38            0    10300.267   -345.49333   -254.64673    229.01242   -1010.8457    1.8447814   -10.179714    2769.7292    37.896639    39.459637    30.158912    45099.264 
      39            0    10300.166   -377.27224   -297.83496    190.20692   -1024.1887    1.7670242   -10.033941    2658.0134    37.896639    39.459637    30.158912    45099.264 
      40            0    10299.982    -370.4104   -213.38849    121.88005   -1019.7228    1.9819016   -10.215523    2648.0606    37.896639    39.459637    30.158912    45099.264 
      41            0    10299.954   -364.27583   -173.42591    122.41347    -1041.815    1.8936736   -10.148407    2682.7302    37.896639    39.459637    30.158912    45099.264 
      42            0    10299.923   -371.21272   -153.30305    100.11171   -1060.4468    1.9219669   -10.088991    2712.9007    37.896639    39.459637    30.158912    45099.264 
      43            0    10299.875   -415.00831   -216.85964    50.369483   -1078.5348    2.0012854   -10.126854    2679.2658    37.896639    39.459637    30.158912    45099.264 
      44            0    10299.771   -437.85394   -258.39324     13.40267   -1068.5712    2.0028861   -10.128387    2611.5568    37.896639    39.459637    30.158912    45099.264 
      45            0    10299.732   -413.07228   -212.01798    39.172812   -1066.3717    1.8762871   -10.071699    2603.6767    37.896639    39.459637    30.158912    45099.264 
      46            0    10299.716   -412.56527   -200.45219    48.497748   -1085.7414    1.8235963   -10.074347    2594.8234    37.896639    39.459637    30.158912    45099.264 
      47            0    10299.691   -410.83528     -204.278    51.577569   -1079.8054    1.9090717   -10.158005    2548.1548    37.896639    39.459637    30.158912    45099.264 
      48            0    10299.641   -399.19435   -190.39839    52.476396   -1059.6611    1.8181355   -10.153289    2457.7428    37.896639    39.459637    30.158912    45099.264 
      49            0     10299.55   -403.99749   -186.85905    25.191264   -1050.3247    1.7824022   -10.079392     2407.995    37.896639    39.459637    30.158912    45099.264 
      50            0     10299.51   -427.10853   -206.86542    2.3595543   -1076.8197    1.8390896    -10.08318    2448.2478    37.896639    39.459637    30.158912    45099.264 
      51            0     10299.49   -443.61923   -218.00531   -8.4925469   -1104.3598    1.7661195   -10.064141     2481.957    37.896639    39.459637    30.158912    45099.264 
      52            0    10299.479   -450.67059   -234.55301   -18.634105   -1098.8247    1.7815801   -10.020427    2485.3852    37.896639    39.459637    30.158912    45099.264 
      53            0    10299.456   -477.91273   -284.99368   -42.157687   -1106.5868    1.7737102    -9.975033    2469.8618    37.896639    39.459637    30.158912    45099.264 
      54            0    10299.377   -484.85279   -291.35145   -72.270889    -1090.936    1.7238273   -9.9241282    2451.1373    37.896639    39.459637    30.158912    45099.264 
      55            0    10299.347   -463.50539   -254.10406   -42.651551   -1093.7606    1.7115063   -10.009389    2441.9975    37.896639    39.459637    30.158912    45099.264 
      56            0    10299.329   -452.25084    -228.3427   -18.906151   -1109.5037    1.6761114   -10.060029    2423.0128    37.896639    39.459637    30.158912    45099.264 
      57            0    10299.307   -449.05995   -230.46367   -16.759299   -1099.9569    1.7344409   -10.043951    2369.2081    37.896639    39.459637    30.158912    45099.264 
      58            0    10299.282   -432.97335   -209.07687   -25.538506   -1064.3047    1.7114916   -10.013236    2319.1906    37.896639    39.459637    30.158912    45099.264 
      59            0    10299.217   -440.05436   -195.97916   -73.582715   -1050.6012    1.6428669   -9.9591267    2303.7442    37.896639    39.459637    30.158912    45099.264 
      60            0    10299.163   -480.60839   -255.97094   -87.818807   -1098.0354    1.6740158   -9.9940239    2306.3979    37.896639    39.459637    30.158912    45099.264 
      61            0    10299.113   -519.56901    -321.6165   -85.831635   -1151.2589    1.5589851   -9.9520316    2293.4114    37.896639    39.459637    30.158912    45099.264 
      62            0     10299.07    -502.4132   -290.13614   -98.670866   -1118.4326    1.4796456   -9.8813368    2269.4984    37.896639    39.459637    30.158912    45099.264 
      63            0    10299.034   -478.22625   -251.66455   -135.26286   -1047.7513    1.5319841   -9.8776199    2232.2626    37.896639    39.459637    30.158912    45099.264 
      64            0    10299.007   -481.57961   -270.07159   -126.83523    -1047.832    1.5636824   -9.9389067    2232.3271    37.896639    39.459637    30.158912    45099.264 
      65            0    10298.971   -472.96646    -282.2608   -54.291956   -1082.3466    1.4956444   -10.065927    2236.4444    37.896639    39.459637    30.158912    45099.264 
      66            0    10298.951   -463.98166   -264.69685   -44.118673   -1083.1294     1.446568   -10.018359    2218.9429    37.896639    39.459637    30.158912    45099.264 
      67            0    10298.919   -474.97208   -251.05307   -98.859824   -1075.0034    1.4143906   -9.8221848    2197.4822    37.896639    39.459637    30.158912    45099.264 
      68            0    10298.884   -484.86417   -272.55807   -126.77326   -1055.2612    1.4342146   -9.8908773    2198.9619    37.896639    39.459637    30.158912    45099.264 
      69            0    10298.841   -475.90301   -296.09073   -108.52033    -1023.098    1.3787591   -9.9934159    2174.6333    37.896639    39.459637    30.158912    45099.264 
      70            0     10298.79   -481.85437   -310.63134   -95.816095   -1039.1157    1.2846526   -9.9211925     2110.834    37.896639    39.459637    30.158912    45099.264 
      71            0    10298.758   -494.94123   -300.88059   -130.46048   -1053.4826    1.3151044   -9.8712932     2085.055    37.896639    39.459637    30.158912    45099.264 
      72            0    10298.731   -476.08237   -240.68068   -169.76021   -1017.8062    1.2856232   -9.8571767    2073.4259    37.896639    39.459637    30.158912    45099.264 
      73            0    10298.704   -452.43721   -225.96402   -139.81587   -991.53175    1.2258766   -9.9347796    2062.6543    37.896639    39.459637    30.158912    45099.264 
      74            0    10298.675   -458.42014   -313.28393   -66.970417   -995.00609    1.2035945   -10.022916    2037.9783    37.896639    39.459637    30.158912    45099.264 
      75            0    10298.653   -477.63411   -340.19424   -92.727828   -999.98027    1.1716302   -9.9397408    2024.4407    37.896639    39.459637    30.158912    45099.264 
      76            0    10298.626   -478.24027   -299.91854   -146.99732   -987.80496     1.132643   -9.8588876    2020.9075    37.896639    39.459637    30.158912    45099.264 
      77            0    10298.608   -463.05836   -295.41549   -139.92219   -953.83739    1.0624527   -9.8588369    2022.9509    37.896639    39.459637    30.158912    45099.264 
      78            0    10298.593   -467.05595    -325.9998   -129.71393   -945.45411     1.042993   -9.9036297    2021.6939    37.896639    39.459637    30.158912    45099.264 
      79            0    10298.578   -470.99087   -315.19951   -135.92438    -961.8487    1.1415133   -9.9886268    2004.6839    37.896639    39.459637    30.158912    45099.264 
      80            0    10298.565   -455.56974   -277.93921   -133.89033   -954.87969    1.1180505   -9.9770863    1980.8281    37.896639    39.459637    30.158912    45099.264 
      81            0    10298.551   -428.89255   -245.84097   -115.29723   -925.53944   0.96297972   -9.8990268    1965.8006    37.896639    39.459637    30.158912    45099.264 
      82            0    10298.539   -432.98243   -260.75836   -110.09016   -928.09878   0.97019442   -9.9204611    1963.4442    37.896639    39.459637    30.158912    45099.264 
      83            0    10298.523   -458.03496   -313.17362   -116.29549   -944.63576    1.0377349   -9.9682696    1957.0729    37.896639    39.459637    30.158912    45099.264 
      84            0    10298.507   -460.72518   -319.25175   -138.89488   -924.02891    1.0057957   -9.9112051    1949.2017    37.896639    39.459637    30.158912    45099.264 
      85            0     10298.49   -460.82353   -315.11957   -174.26842    -893.0826   0.93210229   -9.8918916     1949.512    37.896639    39.459637    30.158912    45099.264 
      86            0    10298.473   -460.46739   -319.96655   -176.86459   -884.57102   0.96429392   -10.013263    1953.4582    37.896639    39.459637    30.158912    45099.264 
      87            0    10298.457   -449.64012   -307.14935   -150.10607   -891.66494    1.0099906   -10.086359     1948.778    37.896639    39.459637    30.158912    45099.264 
      88            0    10298.441   -438.68516   -295.76339   -125.91133   -894.38075   0.88753031   -9.9576341    1927.7947    37.896639    39.459637    30.158912    45099.264 
      89            0     10298.43   -435.35662    -295.7072   -132.84139   -877.52128   0.88966527   -9.9595045    1918.4841    37.896639    39.459637    30.158912    45099.264 
      90            0    10298.419   -431.64556   -290.40549   -147.58571   -856.94548   0.97111698   -10.087444    1917.5763    37.896639    39.459637    30.158912    45099.264 
      91            0     10298.41   -437.52349   -300.20017   -146.20847   -866.16182   0.90007411   -10.016555     1917.366    37.896639    39.459637    30.158912    45099.264 
      92            0    10298.401   -451.42386   -314.55964   -157.29433    -882.4176   0.84078796   -9.9057807    1923.5246    37.896639    39.459637    30.158912    45099.264 
      93            0    10298.393   -457.68335   -307.87073   -193.57824   -871.60108   0.90193054   -9.9648531    1933.0332    37.896639    39.459637    30.158912    45099.264 
      94            0    10298.385   -451.55224   -297.20569   -204.83765   -852.61338   0.97683697   -10.063458    1925.8374    37.896639    39.459637    30.158912    45099.264 
      95            0    10298.373   -444.88947   -305.35958   -155.82557   -873.48325   0.90716574   -10.091248    1896.4125    37.896639    39.459637    30.158912    45099.264 
      96            0    10298.364   -448.70981   -307.27201   -146.29481   -892.56261    0.8608477   -10.072465    1893.1211    37.896639    39.459637    30.158912    45099.264 
      97            0    10298.353   -454.34791    -294.6524   -180.18086   -888.21048   0.94162941   -10.057098     1909.901    37.896639    39.459637    30.158912    45099.264 
      98            0    10298.343   -463.42497   -319.12857   -203.96843   -867.17791   0.93801263   -10.030613    1908.5593    37.896639    39.459637    30.158912    45099.264 
      99            0    10298.334   -482.03637   -364.60862   -218.28938   -863.21111   0.87349561   -10.009743    1899.4241    37.896639    39.459637    30.158912    45099.264 
     100            0    10298.326   -490.58978   -364.77719   -216.08672   -890.90543   0.90956536   -10.057881    1899.8597    37.896639    39.459637    30.158912    45099.264 
     101            0    10298.319   -483.31771   -329.84858     -215.165   -904.93955   0.96437075   -10.080009    1902.1257    37.896639    39.459637    30.158912    45099.264 
     102            0    10298.312   -476.36439   -313.16218   -228.37266   -887.55834   0.93376391   -10.041245    1892.5945    37.896639    39.459637    30.158912    45099.264 
     103            0    10298.308    -481.4074   -326.35238   -230.46103   -887.40879   0.92698603    -10.05395    1888.3417    37.896639    39.459637    30.158912    45099.264 
     104            0    10298.303    -494.5743   -354.57469   -222.24435   -906.90385   0.97164309   -10.121822    1891.3074    37.896639    39.459637    30.158912    45099.264 
     105            0    10298.299   -494.76061    -348.7408   -223.64989   -911.89115   0.97051954   -10.114459    1894.7867    37.896639    39.459637    30.158912    45099.264 
     106            0    10298.295    -495.8574   -341.55117   -236.91757   -909.10347   0.92379136   -10.038157    1898.5753    37.896639    39.459637    30.158912    45099.264 
     107            0    10298.291   -505.66781   -358.37678   -255.03569   -903.59095   0.91206799    -10.01191    1896.1559    37.896639    39.459637    30.158912    45099.264 
     108            0    10298.286   -514.07764   -373.69493   -260.51408   -908.02392   0.96616893    -10.05975    1891.0323    37.896639    39.459637    30.158912    45099.264 
     109            0    10298.282   -521.24022   -374.59989   -251.65235   -937.46841   0.98366834   -10.108248     1895.996    37.896639    39.459637    30.158912    45099.264 
     110            0    10298.278   -524.97644   -372.24884   -253.64729   -949.03319    0.9798331   -10.143955    1896.6026    37.896639    39.459637    30.158912    45099.264 
     111            0    10298.271   -519.95121   -363.75387   -265.93372   -930.16604    1.0051711   -10.136512    1885.2612    37.896639    39.459637    30.158912    45099.264 
     112            0    10298.268   -524.71083   -373.53882   -269.04522   -931.54847   0.99761922   -10.109614    1882.2215    37.896639    39.459637    30.158912    45099.264 
     113            0    10298.266   -540.62197   -399.00058   -274.17142    -948.6939   0.96468291    -10.11048    1884.4955    37.896639    39.459637    30.158912    45099.264 
     114            0    10298.263   -546.12417   -407.98877   -276.26869   -954.11504   0.96209706   -10.098766     1887.814    37.896639    39.459637    30.158912    45099.264 
     115            0    10298.261   -542.33046    -399.7717   -277.74237   -949.47732   0.99833793   -10.093924    1887.9695    37.896639    39.459637    30.158912    45099.264 
     116            0     10298.26   -546.15405   -393.63126   -292.38403   -952.44686    1.0237328   -10.102265    1885.3799    37.896639    39.459637    30.158912    45099.264 
     117            0    10298.258   -556.18182   -404.66005   -300.26939   -963.61603     1.008815   -10.108885    1889.7592    37.896639    39.459637    30.158912    45099.264 
     118            0    10298.256   -560.49521   -422.74757    -289.9316   -968.80645    1.0237263   -10.148478    1899.2778    37.896639    39.459637    30.158912    45099.264 
     119            0    10298.255   -554.48122   -417.02332   -284.45375   -961.96659     1.044776   -10.162733    1896.3704    37.896639    39.459637    30.158912    45099.264 
     120            0    10298.253   -554.32367   -411.28476   -290.27193   -961.41431    1.0134231   -10.123346     1886.813    37.896639    39.459637    30.158912    45099.264 
     121            0    10298.252   -562.76002   -423.56065   -296.37793   -968.34147     1.002592   -10.118336     1885.477    37.896639    39.459637    30.158912    45099.264 
     122            0     10298.25   -571.60933   -442.43991   -299.26638   -973.12171    1.0085389    -10.10944    1888.1165    37.896639    39.459637    30.158912    45099.264 
     123            0    10298.247    -571.6325   -445.37567    -300.8922   -968.62963    1.0417408   -10.082136    1892.0783    37.896639    39.459637    30.158912    45099.264 
     124            0    10298.245   -575.38746   -444.19881   -312.15286   -969.81071    1.0679853   -10.111775    1892.3854    37.896639    39.459637    30.158912    45099.264 
     125            0    10298.244   -581.98131   -443.19173   -322.62484   -980.12735    1.0771599   -10.176249    1889.9283    37.896639    39.459637    30.158912    45099.264 
     126            0    10298.243   -580.16209   -444.63105   -316.05641   -979.79882     1.085351   -10.182308    1889.6189    37.896639    39.459637    30.158912    45099.264 
     127            0    10298.243   -576.07127   -457.12858   -304.48165   -966.60357    1.0337128   -10.135266    1888.9463    37.896639    39.459637    30.158912    45099.264 
     128            0    10298.243   -578.43574   -462.60759   -307.84708   -964.85255    1.0153518   -10.134394    1887.9532    37.896639    39.459637    30.158912    45099.264 
     129            0    10298.242   -580.96536   -458.65159   -315.30725   -968.93725    1.0562651   -10.168755    1886.7098    37.896639    39.459637    30.158912    45099.264 
     130            0    10298.242   -582.23752   -458.23073   -316.39466   -972.08717    1.0801103   -10.127122     1891.398    37.896639    39.459637    30.158912    45099.264 
     131            0    10298.241   -589.35381   -473.10915   -319.04687   -975.90542    1.0676701   -10.078158    1900.3111    37.896639    39.459637    30.158912    45099.264 
     132            0     10298.24   -590.65104   -478.91391   -321.52851   -971.51069    1.0564898   -10.159736    1896.7686    37.896639    39.459637    30.158912    45099.264 
     133            0    10298.239   -584.38747   -467.54087   -324.97187   -960.64968    1.0656761   -10.232527    1884.8516    37.896639    39.459637    30.158912    45099.264 
     134            0    10298.237   -582.76159   -459.26633   -321.98113   -967.03731    1.0581523   -10.108279    1884.9422    37.896639    39.459637    30.158912    45099.264 
     135            0    10298.237   -582.76159   -459.26633   -321.98113   -967.03731    1.0581523   -10.108279    1884.9422    37.896639    39.459637    30.158912    45099.264 
Loop time of 1.59542 on 8 procs for 126 steps with 3712 atoms

99.5% CPU use with 8 MPI tasks x 1 OpenMP threads

Minimization stats:
  Stopping criterion = linesearch alpha is zero
  Energy initial, next-to-last, final = 
      10325.4471601588   10298.2372681275   10298.2372681275
  Force two-norm initial, final = 178.91499 2.7962971
  Force max component initial, final = 5.4558532 0.10418568
  Final line search alpha, max atom move = 9.6166269e-10 1.0019148e-10
  Iterations, force evaluations = 126 265

MPI task timing breakdown:
Section |  min time  |  avg time  |  max time  |%varavg| %total
---------------------------------------------------------------
Pair    | 0.85954    | 1.1665     | 1.476      |  19.7 | 73.11
Bond    | 0.056419   | 0.057527   | 0.059836   |   0.5 |  3.61
Neigh   | 0          | 0          | 0          |   0.0 |  0.00
Comm    | 0.036896   | 0.3456     | 0.65289    |  36.2 | 21.66
Output  | 0.0045409  | 0.006068   | 0.015297   |   4.5 |  0.38
Modify  | 0          | 0          | 0          |   0.0 |  0.00
Other   |            | 0.01975    |            |       |  1.24

Nlocal:        464.000 ave         464 max         464 min
Histogram: 8 0 0 0 0 0 0 0 0 0
Nghost:        7141.00 ave        7142 max        7140 min
Histogram: 4 0 0 0 0 0 0 0 0 4
Neighs:        195630.0 ave      248100 max      143164 min
Histogram: 1 1 1 1 0 0 1 1 1 1

Total # of neighbors = 1565038
Ave neighs/atom = 421.61584
Ave special neighs/atom = 13.034483
Neighbor list builds = 0
Dangerous builds = 0

# Obtain new stress tensor

variable tmp equal pxx
variable pxx1 equal ${tmp}
variable pxx1 equal -459.266330395456
variable tmp equal pyy
variable pyy1 equal ${tmp}
variable pyy1 equal -321.981132021271
variable tmp equal pzz
variable pzz1 equal ${tmp}
variable pzz1 equal -967.037311613957
variable tmp equal pxy
variable pxy1 equal ${tmp}
variable pxy1 equal 1.05815233885895
variable tmp equal pxz
variable pxz1 equal ${tmp}
variable pxz1 equal -10.108278633231
variable tmp equal pyz
variable pyz1 equal ${tmp}
variable pyz1 equal 1884.9422295751

# Compute elastic constant from pressure tensor

variable C1neg equal ${d1}
variable C1neg equal -4.68069988370856
variable C2neg equal ${d2}
variable C2neg equal -3.27743593410097
variable C3neg equal ${d3}
variable C3neg equal -9.83593161897325
variable C4neg equal ${d4}
variable C4neg equal 18.766103520471
variable C5neg equal ${d5}
variable C5neg equal -0.0166922754160102
variable C6neg equal ${d6}
variable C6neg equal 0.0178516200972226

# Reset box and simulation parameters

clear
OMP_NUM_THREADS environment is not set. Defaulting to 1 thread. (src/lammps-master/src/comm.cpp:94)
  using 1 OpenMP thread(s) per MPI task
box tilt large
read_restart restart.equil
Reading restart file ...
  restart file = 30 Nov 2020, LAMMPS = 30 Nov 2020
  restoring atom style full from restart
  triclinic box = (-0.00043121516 0.0048660643 -9.7033041e-05) to (37.896208 39.464503 30.158815) with tilt (0.0020704893 0.0037010238 -1.2416220)
  2 by 2 by 2 MPI processor grid
  restoring pair style lj/cut from restart
  restoring bond style harmonic from restart
  restoring angle style hybrid from restart
  restoring dihedral style harmonic from restart
  restoring improper style fourier from restart
  3712 atoms
  4096 bonds
  7808 angles
  9856 dihedrals
  3072 impropers
Finding 1-2 1-3 1-4 neighbors ...
  special bond factors lj:    0        0        1       
  special bond factors coul:  0        0        0       
     4 = max # of 1-2 neighbors
     8 = max # of 1-3 neighbors
    21 = max # of 1-4 neighbors
    25 = max # of special neighbors
  special bonds CPU = 0.001 seconds
  read_restart CPU = 0.004 seconds
include potential.mod
pair_style      lj/cut 12.5
bond_style      harmonic
angle_style     hybrid cosine/periodic fourier
dihedral_style  harmonic
improper_style  fourier


special_bonds   lj 0.0 0.0 1.0
pair_modify     tail yes mix arithmetic
include data.pair
bond_coeff     1      154.048673        1.928536  # Zn3f2 N_R
bond_coeff     2      122.127512        2.014866  # Zn3f2 O_2
bond_coeff     3      153.811316        1.929528  # Zn3f2 N_3
bond_coeff     4      527.945261        1.044419  # H_ N_3
bond_coeff     5      357.440381        1.081418  # H_ C_R
bond_coeff     6      331.069389        1.109401  # H_ C_3
bond_coeff     7      529.459447        1.043423  # H_ N_R
bond_coeff     8      663.718927        1.345073  # C_R N_R
bond_coeff     9      462.655054        1.379256  # C_R C_R
bond_coeff    10      369.943935        1.486000  # C_R C_3
bond_coeff    11      714.557442        1.269010  # C_R O_2
bond_coeff    12      646.680887        1.311940  # C_R O_R
bond_coeff    13      349.795899        1.514000  # C_3 C_3
bond_coeff    14      529.724731        1.450075  # C_3 N_R
bond_coeff    15      528.634538        1.451071  # C_3 N_3
angle_coeff     1                      fourier      183.483089        0.343737        0.374972        0.281246 # N_R Zn3f2 N_R
angle_coeff     2                      fourier      155.087435        0.343737        0.374972        0.281246 # N_R Zn3f2 O_2
angle_coeff     3                      fourier      183.341639        0.343737        0.374972        0.281246 # N_R Zn3f2 N_3
angle_coeff     4                      fourier      154.973760        0.343737        0.374972        0.281246 # O_2 Zn3f2 N_3
angle_coeff     5              cosine/periodic      159.573934              -1               3 # H_ C_R N_R
angle_coeff     6              cosine/periodic      424.885146              -1               3 # N_R C_R N_R
angle_coeff     7              cosine/periodic      114.578032              -1               3 # H_ C_R C_R
angle_coeff     8              cosine/periodic      307.398705              -1               3 # C_R C_R N_R
angle_coeff     9              cosine/periodic      198.274298              -1               3 # C_R C_R C_3
angle_coeff    10              cosine/periodic      273.097456              -1               3 # C_3 C_R N_R
angle_coeff    11              cosine/periodic      393.120049              -1               3 # O_2 C_R O_R
angle_coeff    12              cosine/periodic      266.629989              -1               3 # O_2 C_R C_3
angle_coeff    13              cosine/periodic      255.317313              -1               3 # O_R C_R C_3
angle_coeff    14                      fourier      117.318683        0.343737        0.374972        0.281246 # H_ C_3 C_3
angle_coeff    15                      fourier      170.007371        0.343737        0.374972        0.281246 # H_ C_3 N_R
angle_coeff    16                      fourier      121.777217        0.343737        0.374972        0.281246 # H_ C_3 C_R
angle_coeff    17                      fourier      303.594562        0.343737        0.374972        0.281246 # C_3 C_3 N_R
angle_coeff    18                      fourier      220.229931        0.343737        0.374972        0.281246 # C_3 C_3 C_R
angle_coeff    19                      fourier      312.548166        0.343737        0.374972        0.281246 # N_R C_3 C_R
angle_coeff    20                      fourier       75.498766        0.343737        0.374972        0.281246 # H_ C_3 H_
angle_coeff    21                      fourier      169.780468        0.343737        0.374972        0.281246 # H_ C_3 N_3
angle_coeff    22                      fourier      303.297032        0.343737        0.374972        0.281246 # C_3 C_3 N_3
angle_coeff    23              cosine/periodic      398.603153              -1               3 # N_R C_R O_R
angle_coeff    24                      fourier       51.536168        0.317506        0.313225        0.272502 # Zn3f2 N_3 H_
angle_coeff    25                      fourier      108.360206        0.317506        0.313225        0.272502 # Zn3f2 N_3 C_3
angle_coeff    26                      fourier       97.017167        0.317506        0.313225        0.272502 # H_ N_3 H_
angle_coeff    27                      fourier      144.695053        0.317506        0.313225        0.272502 # H_ N_3 C_3
angle_coeff    28              cosine/periodic       87.429320              -1               3 # Zn3f2 N_R C_R
angle_coeff    29              cosine/periodic      240.001032              -1               3 # C_R N_R C_R
angle_coeff    30              cosine/periodic      108.417222              -1               3 # H_ N_R C_3
angle_coeff    31              cosine/periodic      125.071223              -1               3 # H_ N_R C_R
angle_coeff    32              cosine/periodic      213.564697              -1               3 # C_3 N_R C_R
angle_coeff    33              cosine/periodic       84.412329              -1               3 # Zn3f2 O_2 C_R
dihedral_coeff     1        1.497136              -1               2 # H_ C_R N_R Zn3f2
dihedral_coeff     2        0.083333               1               3 # C_R C_R C_3 C_3
dihedral_coeff     3        2.245703              -1               2 # O_R C_R O_2 Zn3f2
dihedral_coeff     4        0.066219               1               3 # H_ C_3 C_3 C_R
dihedral_coeff     5        0.416667              -1               2 # H_ C_3 N_R H_
dihedral_coeff     6        0.030516               1               3 # H_ C_3 N_3 Zn3f2
improper_coeff     1        2.000000        1.000000       -1.000000        0.000000               0 # H_ C_R N_R N_R
pair_coeff 1 1 0.124 2.461553
pair_coeff 1 2 0.07386474125047755 2.5163434999999996
pair_coeff 1 3 0.11410521460476729 2.946202
pair_coeff 1 4 0.11410521460476729 2.946202
pair_coeff 1 5 0.09249864863877742 2.861121
pair_coeff 1 6 0.09249864863877742 2.861121
pair_coeff 1 7 0.08625543461139129 2.7898495
pair_coeff 1 8 0.08625543461139129 2.7898495
pair_coeff 2 2 0.044 2.571134
pair_coeff 2 3 0.0679705818718657 3.0009924999999997
pair_coeff 2 4 0.0679705818718657 3.0009924999999997
pair_coeff 2 5 0.05509990925582364 2.9159115
pair_coeff 2 6 0.05509990925582364 2.9159115
pair_coeff 2 7 0.05138093031466051 2.84464
pair_coeff 2 8 0.05138093031466051 2.84464
pair_coeff 3 3 0.105 3.430851
pair_coeff 3 4 0.105 3.430851
pair_coeff 3 5 0.08511756575466665 3.34577
pair_coeff 3 6 0.08511756575466665 3.34577
pair_coeff 3 7 0.07937253933193772 3.2744985
pair_coeff 3 8 0.07937253933193772 3.2744985
pair_coeff 4 4 0.105 3.430851
pair_coeff 4 5 0.08511756575466665 3.34577
pair_coeff 4 6 0.08511756575466665 3.34577
pair_coeff 4 7 0.07937253933193772 3.2744985
pair_coeff 4 8 0.07937253933193772 3.2744985
pair_coeff 5 5 0.069 3.2606889999999997
pair_coeff 5 6 0.069 3.2606889999999997
pair_coeff 5 7 0.06434283176858166 3.1894175
pair_coeff 5 8 0.06434283176858166 3.1894175
pair_coeff 6 6 0.069 3.2606889999999997
pair_coeff 6 7 0.06434283176858166 3.1894175
pair_coeff 6 8 0.06434283176858166 3.1894175
pair_coeff 7 7 0.06 3.118146
pair_coeff 7 8 0.06 3.118146
pair_coeff 8 8 0.06 3.118146

# Setup neighbor style
neighbor 1.0 nsq
neigh_modify once no every 1 delay 0 check yes

# Setup minimization style
min_style	     cg
min_modify	     dmax ${dmax} line quadratic
min_modify	     dmax 0.001 line quadratic

# Setup output
thermo		1
thermo_style custom step temp pe press pxx pyy pzz pxy pxz pyz lx ly lz vol
thermo_modify norm no

# Positive deformation

variable delta equal ${up}*${len0}
variable delta equal 0.01*${len0}
variable delta equal 0.01*30.1589120660827
variable deltaxy equal ${up}*xy
variable deltaxy equal 0.01*xy
variable deltaxz equal ${up}*xz
variable deltaxz equal 0.01*xz
variable deltayz equal ${up}*yz
variable deltayz equal 0.01*yz
if "${dir} == 1" then    "change_box all x delta 0 ${delta} xy delta ${deltaxy} xz delta ${deltaxz} remap units box"
if "${dir} == 2" then    "change_box all y delta 0 ${delta} yz delta ${deltayz} remap units box"
if "${dir} == 3" then    "change_box all z delta 0 ${delta} remap units box"
if "${dir} == 4" then    "change_box all yz delta ${delta} remap units box"
change_box all yz delta ${delta} remap units box
change_box all yz delta 0.301589120660827 remap units box
Changing box ...
  triclinic box = (-0.00043121516 0.0048660643 -9.7033041e-05) to (37.896208 39.464503 30.158815) with tilt (0.0020704893 0.0037010238 -0.94003287)
if "${dir} == 5" then    "change_box all xz delta ${delta} remap units box"
if "${dir} == 6" then    "change_box all xy delta ${delta} remap units box"

# Relax atoms positions

minimize ${etol} ${ftol} ${maxiter} ${maxeval}
minimize 1e-10 ${ftol} ${maxiter} ${maxeval}
minimize 1e-10 1e-10 ${maxiter} ${maxeval}
minimize 1e-10 1e-10 100000 ${maxeval}
minimize 1e-10 1e-10 100000 10000000
Neighbor list info ...
  update every 1 steps, delay 0 steps, check yes
  max neighbors/atom: 2000, page size: 100000
  master list distance cutoff = 13.5
  ghost atom cutoff = 13.5
  1 neighbor lists, perpetual/occasional/extra = 1 0 0
  (1) pair lj/cut, perpetual
      attributes: half, newton on
      pair build: half/nsq/newton
      stencil: none
      bin: none
WARNING: Inconsistent image flags (src/lammps-master/src/domain.cpp:812)
Per MPI rank memory allocation (min/avg/max) = 18.81 | 19.00 | 19.19 Mbytes
Step Temp PotEng Press Pxx Pyy Pzz Pxy Pxz Pyz Lx Ly Lz Volume 
       9            0     10324.86    239.98994   -277.88513   -679.26564    1677.1206  -0.93407502   -8.8384948   -9978.2872    37.896639    39.459637    30.158912    45099.264 
      10            0    10320.101    104.16169   -202.10213   -922.57561    1437.1628  -0.86981176   -8.1206131   -9102.9188    37.896639    39.459637    30.158912    45099.264 
      11            0    10316.081   -72.221019   -126.01443   -1203.0071    1112.3585  -0.57193288   -7.6464046   -8095.3117    37.896639    39.459637    30.158912    45099.264 
      12            0    10313.408   -210.19178    -153.4555   -1372.6663    895.54649  -0.10585081   -7.8654013   -7376.3695    37.896639    39.459637    30.158912    45099.264 
      13            0     10311.34    -310.7632   -237.18971   -1483.9785     788.8786   0.11118517   -8.0445043   -6794.3091    37.896639    39.459637    30.158912    45099.264 
      14            0    10309.793   -350.66298   -256.65016    -1557.435    762.09623   0.32017459     -8.16527   -6359.7788    37.896639    39.459637    30.158912    45099.264 
      15            0    10308.562   -392.00848   -331.71268   -1555.9318    711.61905   0.47723708   -8.3642884   -5953.2832    37.896639    39.459637    30.158912    45099.264 
      16            0    10307.626   -367.64313   -239.52919   -1609.8773    746.47706   0.73743372    -8.454754   -5640.9041    37.896639    39.459637    30.158912    45099.264 
      17            0    10306.616    -382.1968   -266.49182   -1578.2377    698.13911   0.87617035   -8.6378254   -5320.7846    37.896639    39.459637    30.158912    45099.264 
      18            0     10305.94   -380.72328   -304.04263   -1512.3374     674.2102    1.0156679   -8.8379257   -5022.8492    37.896639    39.459637    30.158912    45099.264 
      19            0    10305.213    -337.3578   -181.43708   -1516.4391    685.80277    1.2082731   -8.8987011   -4844.6108    37.896639    39.459637    30.158912    45099.264 
      20            0    10304.599   -323.60285   -179.29946   -1455.4829    663.97384    1.3509621   -9.0674807   -4595.8991    37.896639    39.459637    30.158912    45099.264 
      21            0    10304.103   -291.24903   -109.55843   -1460.1255    695.93688    1.4888298   -9.1064029   -4416.1403    37.896639    39.459637    30.158912    45099.264 
      22            0    10303.529   -273.86132   -98.073047   -1388.3645    664.85361    1.6083139   -9.2506974   -4208.6179    37.896639    39.459637    30.158912    45099.264 
      23            0    10303.112   -222.19455   -58.113126   -1329.2037    720.73321    1.7429266   -9.3739862   -3996.3122    37.896639    39.459637    30.158912    45099.264 
      24            0    10302.565   -195.05171   -26.829484   -1268.3188    709.99312    1.8129247   -9.4141765   -3842.8553    37.896639    39.459637    30.158912    45099.264 
      25            0    10302.289   -160.51247    49.054175   -1235.5829    704.99127    1.7946619   -9.3266548   -3729.2997    37.896639    39.459637    30.158912    45099.264 
      26            0    10301.785   -98.122271    81.010466   -1138.5848    763.20755    1.8294633   -9.3739577   -3539.6053    37.896639    39.459637    30.158912    45099.264 
      27            0    10301.599   -74.532143    48.180023   -1082.9654    811.18894    1.8759166   -9.4782748   -3480.1083    37.896639    39.459637    30.158912    45099.264 
      28            0    10301.365    1.7753379    100.51242   -955.47979    860.29338    1.9505236   -9.4913979   -3345.1751    37.896639    39.459637    30.158912    45099.264 
      29            0    10300.947    73.078771    145.76871   -858.15526    931.62286    1.9195217   -9.5043062   -3189.9681    37.896639    39.459637    30.158912    45099.264 
      30            0    10300.829    64.390318    124.86148   -873.73203     942.0415    1.8386682   -9.4948938   -3171.2743    37.896639    39.459637    30.158912    45099.264 
      31            0    10300.779    52.886605    89.441533   -860.91719    930.13547    1.8064088   -9.4305347   -3146.8045    37.896639    39.459637    30.158912    45099.264 
      32            0    10300.556    104.87365    115.00177   -791.39478    991.01397    1.8214463   -9.4147845   -3030.7143    37.896639    39.459637    30.158912    45099.264 
      33            0    10300.426    158.97702    188.83728   -735.95566    1024.0494    1.7311265    -9.538461   -2980.6819    37.896639    39.459637    30.158912    45099.264 
      34            0    10300.319    195.93452    211.08522   -678.48036    1055.1987    1.6722964   -9.5166335   -2903.2455    37.896639    39.459637    30.158912    45099.264 
      35            0    10300.087    223.45551     180.4942   -622.13221    1112.0045    1.6919576   -9.4329054   -2823.6239    37.896639    39.459637    30.158912    45099.264 
      36            0    10300.009    229.86521    167.17467   -601.24508     1123.666     1.717063   -9.4705156   -2824.9642    37.896639    39.459637    30.158912    45099.264 
      37            0    10299.984    226.85118    163.31972   -592.98047    1110.2143    1.7132984   -9.4733943   -2813.8308    37.896639    39.459637    30.158912    45099.264 
      38            0    10299.916      265.886    249.91394   -577.12521    1124.8693    1.5501404   -9.5362343   -2694.9422    37.896639    39.459637    30.158912    45099.264 
      39            0    10299.813    308.70869    306.38773   -519.18715    1138.9255    1.5140358   -9.5164844   -2594.7497    37.896639    39.459637    30.158912    45099.264 
      40            0     10299.62    317.81612     247.5753   -489.48995     1195.363    1.6142303   -9.4269189   -2564.2161    37.896639    39.459637    30.158912    45099.264 
      41            0    10299.571    301.98688    180.37131   -465.61513    1191.2045    1.5064945   -9.4779572   -2603.2147    37.896639    39.459637    30.158912    45099.264 
      42            0    10299.536    306.56387    149.00295   -432.43125    1203.1199    1.4677846   -9.5739734   -2639.2384    37.896639    39.459637    30.158912    45099.264 
      43            0     10299.49    346.41422    223.20046   -420.77905    1236.8212    1.5726954   -9.5414594   -2591.6239    37.896639    39.459637    30.158912    45099.264 
      44            0    10299.393    385.98062     301.3264   -404.73731    1261.3528    1.5883754   -9.4679688   -2464.3356    37.896639    39.459637    30.158912    45099.264 
      45            0    10299.313    372.72934    263.19684   -385.96512    1240.9563    1.4425044   -9.5721264   -2424.1682    37.896639    39.459637    30.158912    45099.264 
      46            0    10299.256    373.11807    219.21917    -344.0332    1244.1682    1.2715308   -9.6343929   -2425.7281    37.896639    39.459637    30.158912    45099.264 
      47            0     10299.16    387.52884    215.23336    -335.9826    1283.3357    1.2418824   -9.5183077   -2372.5258    37.896639    39.459637    30.158912    45099.264 
      48            0    10299.098    388.01063    225.07196   -351.72458    1290.6845    1.2977148   -9.4861846   -2313.2415    37.896639    39.459637    30.158912    45099.264 
      49            0    10299.063    424.51379    271.54125   -301.51169    1303.5118    1.3927131   -9.5997466   -2297.5145    37.896639    39.459637    30.158912    45099.264 
      50            0    10299.022    457.50419    302.22593   -249.22264    1319.5093    1.3938449   -9.7010173   -2301.9059    37.896639    39.459637    30.158912    45099.264 
      51            0    10298.963    437.61387    271.32672   -259.48117    1300.9961    1.0895655   -9.6552346   -2268.6316    37.896639    39.459637    30.158912    45099.264 
      52            0    10298.897    427.18717    269.21337   -296.56151    1308.9097   0.97930669   -9.5823515   -2182.5699    37.896639    39.459637    30.158912    45099.264 
      53            0    10298.857    439.19949    288.76046   -295.64459    1324.4826     1.166336   -9.6341069   -2103.2072    37.896639    39.459637    30.158912    45099.264 
      54            0    10298.808    440.02928    252.52248   -236.37888    1303.9442     1.235838   -9.6383567   -2108.3026    37.896639    39.459637    30.158912    45099.264 
      55            0    10298.751    434.21254    228.63325   -220.62104    1294.6254     1.126629   -9.6024805   -2115.5076    37.896639    39.459637    30.158912    45099.264 
      56            0    10298.724    438.59324    278.19797   -266.98981    1304.5716    1.0041015   -9.6549515   -2078.0178    37.896639    39.459637    30.158912    45099.264 
      57            0    10298.714    451.75323    317.32605   -275.63484    1313.5685   0.96782767   -9.7232215   -2056.8772    37.896639    39.459637    30.158912    45099.264 
      58            0    10298.696    453.95279    311.71786     -267.513    1317.6535    1.0222958   -9.7607743    -2054.117    37.896639    39.459637    30.158912    45099.264 
      59            0    10298.681    427.75941    268.93202   -274.99025    1289.3365    1.0419837   -9.6692399   -2056.1951    37.896639    39.459637    30.158912    45099.264 
      60            0    10298.634    382.01742    226.57518   -314.70834    1234.1854    1.0225765   -9.4798095   -2047.2414    37.896639    39.459637    30.158912    45099.264 
      61            0     10298.59    381.21641    247.86526   -327.97664    1223.7606   0.98057632   -9.7220577   -2063.4686    37.896639    39.459637    30.158912    45099.264 
      62            0    10298.555    381.08195    270.37436   -332.47938    1205.3509   0.86463358   -9.9318432   -2069.0733    37.896639    39.459637    30.158912    45099.264 
      63            0    10298.518    363.61321    259.21464   -357.08314    1188.7081   0.85798843   -9.7175106   -2033.1644    37.896639    39.459637    30.158912    45099.264 
      64            0    10298.499    352.64989    258.21368   -377.34804     1177.084   0.94596154   -9.5543701   -2011.6631    37.896639    39.459637    30.158912    45099.264 
      65            0    10298.482    345.51669    269.39524   -388.43866    1155.5935   0.94440362   -9.6447495   -2007.4988    37.896639    39.459637    30.158912    45099.264 
      66            0    10298.471    331.24988    254.58474   -402.01172    1141.1766   0.86592321   -9.7710595   -2004.0822    37.896639    39.459637    30.158912    45099.264 
      67            0     10298.46    316.96078    228.05313   -410.64189    1133.4711   0.81534805   -9.7974231   -2006.9925    37.896639    39.459637    30.158912    45099.264 
      68            0    10298.452    319.09031    232.74618   -401.79723     1126.322   0.84991711   -9.7459266    -2010.183    37.896639    39.459637    30.158912    45099.264 
      69            0     10298.44    324.12152    250.27183   -384.71164    1106.8044   0.94728114   -9.6859854   -2006.4333    37.896639    39.459637    30.158912    45099.264 
      70            0     10298.43    318.61524    249.53459   -393.28472    1099.5959   0.91464108    -9.651674   -1994.9468    37.896639    39.459637    30.158912    45099.264 
      71            0    10298.412    312.18737    251.60442   -429.26882    1114.2265   0.70482766   -9.6639629   -1962.8831    37.896639    39.459637    30.158912    45099.264 
      72            0    10298.394    302.38354    236.41497   -430.20038     1100.936   0.72388945   -9.7961681   -1958.1916    37.896639    39.459637    30.158912    45099.264 
      73            0    10298.373    266.46698    179.09895   -419.80916    1040.1111   0.92285337   -9.9047568   -1974.8751    37.896639    39.459637    30.158912    45099.264 
      74            0    10298.357     252.7439    167.81279   -427.66712     1018.086    0.8936686   -9.7346719   -1964.5904    37.896639    39.459637    30.158912    45099.264 
      75            0    10298.337    269.69333    199.48118   -422.02142    1031.6202   0.72653156   -9.5340974   -1942.8995    37.896639    39.459637    30.158912    45099.264 
      76            0    10298.327    283.59588    218.22704    -403.4852    1036.0458   0.70084306   -9.6699795   -1945.7126    37.896639    39.459637    30.158912    45099.264 
      77            0    10298.319    279.07382     216.0759   -397.31011    1018.4557   0.72936653   -9.8489208   -1944.9828    37.896639    39.459637    30.158912    45099.264 
      78            0    10298.313    261.64189    193.95074    -411.7571     1002.732   0.77200319   -9.7874285   -1925.5744    37.896639    39.459637    30.158912    45099.264 
      79            0    10298.307    254.83388    179.40523   -423.78402    1008.8804   0.78766503    -9.677273   -1912.0038    37.896639    39.459637    30.158912    45099.264 
      80            0      10298.3    260.03407    178.22459   -416.63249    1018.5101   0.71150128   -9.7311877   -1921.5894    37.896639    39.459637    30.158912    45099.264 
      81            0    10298.294    260.78589    177.69725   -404.98009    1009.6405   0.62976318   -9.8179725   -1927.9251    37.896639    39.459637    30.158912    45099.264 
      82            0    10298.284     267.9072    203.80562   -396.82283     996.7388   0.64061407   -9.7469695   -1909.9658    37.896639    39.459637    30.158912    45099.264 
      83            0    10298.275    280.85551    227.29731   -385.91257    1001.1818   0.69842227   -9.6878953   -1897.1129    37.896639    39.459637    30.158912    45099.264 
      84            0    10298.261    284.62701    202.56176   -369.29099    1020.6103   0.70531992   -9.8396668   -1893.9899    37.896639    39.459637    30.158912    45099.264 
      85            0     10298.25    273.38778    172.45399   -377.47098    1025.1803   0.61775104   -9.9211677   -1886.4568    37.896639    39.459637    30.158912    45099.264 
      86            0    10298.241    261.08869    170.43699   -396.34172    1009.1708   0.55135679   -9.8237651   -1870.5576    37.896639    39.459637    30.158912    45099.264 
      87            0    10298.236    267.02253    182.16879   -388.40183    1007.3006   0.57349713   -9.7698675   -1866.8431    37.896639    39.459637    30.158912    45099.264 
      88            0    10298.232    283.02716    194.76298   -366.35035    1020.6689   0.58104081   -9.7709881   -1873.8012    37.896639    39.459637    30.158912    45099.264 
      89            0    10298.229    285.09563    196.93994   -366.44928    1024.7962   0.56940039   -9.7964557   -1872.8892    37.896639    39.459637    30.158912    45099.264 
      90            0    10298.227    283.99928    200.10667   -372.91085     1024.802   0.56616612   -9.8485615   -1863.9762    37.896639    39.459637    30.158912    45099.264 
      91            0    10298.225    285.11519    201.09206   -369.97334    1024.2269   0.54371005   -9.8669217   -1863.1224    37.896639    39.459637    30.158912    45099.264 
      92            0    10298.223    284.11334    192.67491   -365.81891     1025.484   0.52429546   -9.8385735   -1866.3442    37.896639    39.459637    30.158912    45099.264 
      93            0    10298.219    284.72735    187.46738   -365.19341    1031.9081   0.57544793   -9.7987674   -1861.6506    37.896639    39.459637    30.158912    45099.264 
      94            0    10298.215    294.78122    204.02766   -360.29297     1040.609   0.62450455   -9.7713233   -1856.2966    37.896639    39.459637    30.158912    45099.264 
      95            0    10298.209    305.87864    232.92594   -359.84173    1044.5517   0.51648349   -9.7990039   -1855.3701    37.896639    39.459637    30.158912    45099.264 
      96            0    10298.204    305.03322    231.18974    -360.4705    1044.3804   0.43277547   -9.8413569   -1852.8893    37.896639    39.459637    30.158912    45099.264 
      97            0    10298.199    304.83078    213.97036   -351.37873    1051.9007    0.5368329   -9.8356714   -1851.2927    37.896639    39.459637    30.158912    45099.264 
      98            0    10298.196    310.75949    216.97226   -347.90772    1063.2139   0.64053819   -9.8218694   -1849.6383    37.896639    39.459637    30.158912    45099.264 
      99            0    10298.194    312.26217    228.76293   -352.22032    1060.2439   0.55125325   -9.8186968   -1845.9498    37.896639    39.459637    30.158912    45099.264 
     100            0    10298.192    310.97314    230.69809   -352.90799    1055.1293   0.47506051   -9.8011717   -1845.0494    37.896639    39.459637    30.158912    45099.264 
     101            0     10298.19    315.20719    231.55811   -348.93802    1063.0015   0.51829458   -9.7745096   -1847.6115    37.896639    39.459637    30.158912    45099.264 
     102            0    10298.189    320.53781    236.03108    -343.8538    1069.4361   0.56997455   -9.7836625   -1849.7978    37.896639    39.459637    30.158912    45099.264 
     103            0    10298.188    321.40095    239.79211   -342.10666    1066.5174   0.54409021   -9.8175699   -1849.7376    37.896639    39.459637    30.158912    45099.264 
     104            0    10298.186    316.49568     234.4655    -348.5886    1063.6101   0.49821056   -9.8253527   -1848.9953    37.896639    39.459637    30.158912    45099.264 
     105            0    10298.183    315.87321    227.88182   -348.07349    1067.8113   0.52718695   -9.7764911    -1852.746    37.896639    39.459637    30.158912    45099.264 
     106            0    10298.181    321.95611    235.32737   -337.70988    1068.2508   0.56878111    -9.725129   -1855.8901    37.896639    39.459637    30.158912    45099.264 
     107            0    10298.178    325.46678    249.91017   -332.82199    1059.3122   0.54637264    -9.705361   -1855.0559    37.896639    39.459637    30.158912    45099.264 
     108            0    10298.176    326.89721    259.65807   -335.42312    1056.4567   0.51757934   -9.7459578   -1850.7228    37.896639    39.459637    30.158912    45099.264 
     109            0    10298.173    331.84475    266.05774   -333.19635    1062.6729   0.53433713   -9.7947768   -1850.4693    37.896639    39.459637    30.158912    45099.264 
     110            0    10298.172    331.95927    257.80951   -329.56033    1067.6286   0.54260436   -9.7862971   -1858.1292    37.896639    39.459637    30.158912    45099.264 
     111            0     10298.17    327.85293    248.38221   -330.30643     1065.483   0.52060459   -9.7343008   -1859.6848    37.896639    39.459637    30.158912    45099.264 
     112            0    10298.169    326.62346    252.51682   -331.90517    1059.2587   0.53414137   -9.6995696   -1851.6205    37.896639    39.459637    30.158912    45099.264 
     113            0    10298.168    329.42478    262.97418   -330.77375    1056.0739   0.57391575   -9.7183307   -1847.9063    37.896639    39.459637    30.158912    45099.264 
     114            0    10298.167    333.19519    270.55524   -329.58397    1058.6143   0.55876899   -9.7829809   -1851.9184    37.896639    39.459637    30.158912    45099.264 
     115            0    10298.165    332.82643    269.53177   -331.37425    1060.3218   0.51251916   -9.8010938   -1852.2398    37.896639    39.459637    30.158912    45099.264 
     116            0    10298.163    330.84503    267.12345   -334.03561    1059.4473   0.53226581    -9.738705   -1844.7838    37.896639    39.459637    30.158912    45099.264 
     117            0    10298.162    333.69433    270.79605   -330.36359    1060.6505   0.57936592   -9.7206507   -1844.5567    37.896639    39.459637    30.158912    45099.264 
     118            0    10298.158    335.52566    270.74558   -322.57198    1058.4034   0.56366958   -9.7788344   -1851.8093    37.896639    39.459637    30.158912    45099.264 
     119            0    10298.156    333.27862    270.96294   -325.03757    1053.9105   0.51651844   -9.7784832   -1849.1426    37.896639    39.459637    30.158912    45099.264 
     120            0    10298.154     336.7731    285.26326     -329.256     1054.312   0.53219499   -9.7394988   -1839.2438    37.896639    39.459637    30.158912    45099.264 
     121            0    10298.153    340.74463    292.66121    -324.7028    1054.2755   0.57487102   -9.7599934   -1838.0294    37.896639    39.459637    30.158912    45099.264 
     122            0    10298.151    340.04731     288.2487   -319.20128    1051.0945   0.57491995   -9.8069064    -1841.752    37.896639    39.459637    30.158912    45099.264 
     123            0     10298.15    338.12998    284.25129   -321.63372    1051.7724   0.53449401   -9.7833766   -1842.3246    37.896639    39.459637    30.158912    45099.264 
     124            0    10298.148    338.69475    284.85401   -322.50608    1053.7363   0.52781768   -9.7430467   -1841.6237    37.896639    39.459637    30.158912    45099.264 
     125            0    10298.147    341.19728    288.83789   -316.80826    1051.5622     0.554254     -9.75855   -1842.0735    37.896639    39.459637    30.158912    45099.264 
     126            0    10298.147    340.93758    289.24214    -313.4495    1047.0201   0.54566996   -9.7778798   -1842.5722    37.896639    39.459637    30.158912    45099.264 
     127            0    10298.147     339.7358    286.72605   -314.11031    1046.5917   0.53032605   -9.7612713   -1841.2484    37.896639    39.459637    30.158912    45099.264 
     128            0    10298.146    342.41326    289.56429   -313.12817    1050.8036   0.54043409   -9.7569524   -1840.6021    37.896639    39.459637    30.158912    45099.264 
     129            0    10298.145    344.16028    292.70263   -311.21033    1050.9885   0.52800756   -9.7789837   -1842.3835    37.896639    39.459637    30.158912    45099.264 
     130            0    10298.144    341.76546    288.60526   -310.85317    1047.5443   0.51282823   -9.7755761   -1841.9814    37.896639    39.459637    30.158912    45099.264 
     131            0    10298.144    340.46185    283.51726   -308.33221    1046.2005    0.5277459   -9.7328462   -1839.1067    37.896639    39.459637    30.158912    45099.264 
     132            0    10298.144    343.36908    287.74871   -305.58782    1047.9464   0.54911414   -9.7339527   -1838.9176    37.896639    39.459637    30.158912    45099.264 
     133            0    10298.143    346.52587    295.17422   -304.97628    1049.3797   0.53888324   -9.7872746   -1838.5711    37.896639    39.459637    30.158912    45099.264 
     134            0    10298.143    346.52587    295.17422   -304.97628    1049.3797   0.53888324   -9.7872746   -1838.5711    37.896639    39.459637    30.158912    45099.264 
Loop time of 1.55577 on 8 procs for 125 steps with 3712 atoms

99.6% CPU use with 8 MPI tasks x 1 OpenMP threads

Minimization stats:
  Stopping criterion = linesearch alpha is zero
  Energy initial, next-to-last, final = 
      10324.8597508132   10298.1428671781   10298.1428671781
  Force two-norm initial, final = 177.52231 1.2714727
  Force max component initial, final = 5.4826045 0.051510229
  Final line search alpha, max atom move = 5.3818339e-09 2.7721950e-10
  Iterations, force evaluations = 125 259

MPI task timing breakdown:
Section |  min time  |  avg time  |  max time  |%varavg| %total
---------------------------------------------------------------
Pair    | 0.84115    | 1.1442     | 1.4386     |  19.4 | 73.55
Bond    | 0.05391    | 0.0564     | 0.058128   |   0.6 |  3.63
Neigh   | 0          | 0          | 0          |   0.0 |  0.00
Comm    | 0.034309   | 0.32859    | 0.63094    |  36.2 | 21.12
Output  | 0.0044384  | 0.0059391  | 0.015144   |   4.5 |  0.38
Modify  | 0          | 0          | 0          |   0.0 |  0.00
Other   |            | 0.02063    |            |       |  1.33

Nlocal:        464.000 ave         464 max         464 min
Histogram: 8 0 0 0 0 0 0 0 0 0
Nghost:        7141.00 ave        7142 max        7140 min
Histogram: 4 0 0 0 0 0 0 0 0 4
Neighs:        195819.0 ave      248304 max      143322 min
Histogram: 1 1 1 1 0 0 1 1 1 1

Total # of neighbors = 1566554
Ave neighs/atom = 422.02425
Ave special neighs/atom = 13.034483
Neighbor list builds = 0
Dangerous builds = 0

# Obtain new stress tensor

variable tmp equal pe
variable e1 equal ${tmp}
variable e1 equal 10298.1428671781
variable tmp equal press
variable p1 equal ${tmp}
variable p1 equal 346.525868626171
variable tmp equal pxx
variable pxx1 equal ${tmp}
variable pxx1 equal 295.174223132317
variable tmp equal pyy
variable pyy1 equal ${tmp}
variable pyy1 equal -304.976284052921
variable tmp equal pzz
variable pzz1 equal ${tmp}
variable pzz1 equal 1049.37966679912
variable tmp equal pxy
variable pxy1 equal ${tmp}
variable pxy1 equal 0.53888323899323
variable tmp equal pxz
variable pxz1 equal ${tmp}
variable pxz1 equal -9.7872746069459
variable tmp equal pyz
variable pyz1 equal ${tmp}
variable pyz1 equal -1838.57111418783

# Compute elastic constant from pressure tensor

variable C1pos equal ${d1}
variable C1pos equal -2.9636690249116
variable C2pos equal ${d2}
variable C2pos equal 3.10513431206166
variable C3pos equal ${d3}
variable C3pos equal -10.5954134147973
variable C4pos equal ${d4}
variable C4pos equal 18.9623954352069
variable C5pos equal ${d5}
variable C5pos equal 0.0134397021196764
variable C6pos equal ${d6}
variable C6pos equal -0.0125901259428332

# Combine positive and negative

variable C1${dir} equal 0.5*(${C1neg}+${C1pos})
variable C14 equal 0.5*(${C1neg}+${C1pos})
variable C14 equal 0.5*(-4.68069988370856+${C1pos})
variable C14 equal 0.5*(-4.68069988370856+-2.9636690249116)
variable C2${dir} equal 0.5*(${C2neg}+${C2pos})
variable C24 equal 0.5*(${C2neg}+${C2pos})
variable C24 equal 0.5*(-3.27743593410097+${C2pos})
variable C24 equal 0.5*(-3.27743593410097+3.10513431206166)
variable C3${dir} equal 0.5*(${C3neg}+${C3pos})
variable C34 equal 0.5*(${C3neg}+${C3pos})
variable C34 equal 0.5*(-9.83593161897325+${C3pos})
variable C34 equal 0.5*(-9.83593161897325+-10.5954134147973)
variable C4${dir} equal 0.5*(${C4neg}+${C4pos})
variable C44 equal 0.5*(${C4neg}+${C4pos})
variable C44 equal 0.5*(18.766103520471+${C4pos})
variable C44 equal 0.5*(18.766103520471+18.9623954352069)
variable C5${dir} equal 0.5*(${C5neg}+${C5pos})
variable C54 equal 0.5*(${C5neg}+${C5pos})
variable C54 equal 0.5*(-0.0166922754160102+${C5pos})
variable C54 equal 0.5*(-0.0166922754160102+0.0134397021196764)
variable C6${dir} equal 0.5*(${C6neg}+${C6pos})
variable C64 equal 0.5*(${C6neg}+${C6pos})
variable C64 equal 0.5*(0.0178516200972226+${C6pos})
variable C64 equal 0.5*(0.0178516200972226+-0.0125901259428332)

# Delete dir to make sure it is not reused

variable dir delete

# uxz Perturbation

variable dir equal 5
include displace.mod
# NOTE: This script should not need to be
# modified. See in.elastic for more info.
#
# Find which reference length to use

if "${dir} == 1" then    "variable len0 equal ${lx0}"
if "${dir} == 2" then    "variable len0 equal ${ly0}"
if "${dir} == 3" then    "variable len0 equal ${lz0}"
if "${dir} == 4" then    "variable len0 equal ${lz0}"
if "${dir} == 5" then    "variable len0 equal ${lz0}"
variable len0 equal ${lz0}
variable len0 equal 30.1589120660827
if "${dir} == 6" then    "variable len0 equal ${ly0}"

# Reset box and simulation parameters

clear
OMP_NUM_THREADS environment is not set. Defaulting to 1 thread. (src/lammps-master/src/comm.cpp:94)
  using 1 OpenMP thread(s) per MPI task
box tilt large
read_restart restart.equil
Reading restart file ...
  restart file = 30 Nov 2020, LAMMPS = 30 Nov 2020
  restoring atom style full from restart
  triclinic box = (-0.00043121516 0.0048660643 -9.7033041e-05) to (37.896208 39.464503 30.158815) with tilt (0.0020704893 0.0037010238 -1.2416220)
  2 by 2 by 2 MPI processor grid
  restoring pair style lj/cut from restart
  restoring bond style harmonic from restart
  restoring angle style hybrid from restart
  restoring dihedral style harmonic from restart
  restoring improper style fourier from restart
  3712 atoms
  4096 bonds
  7808 angles
  9856 dihedrals
  3072 impropers
Finding 1-2 1-3 1-4 neighbors ...
  special bond factors lj:    0        0        1       
  special bond factors coul:  0        0        0       
     4 = max # of 1-2 neighbors
     8 = max # of 1-3 neighbors
    21 = max # of 1-4 neighbors
    25 = max # of special neighbors
  special bonds CPU = 0.001 seconds
  read_restart CPU = 0.004 seconds
include potential.mod
pair_style      lj/cut 12.5
bond_style      harmonic
angle_style     hybrid cosine/periodic fourier
dihedral_style  harmonic
improper_style  fourier


special_bonds   lj 0.0 0.0 1.0
pair_modify     tail yes mix arithmetic
include data.pair
bond_coeff     1      154.048673        1.928536  # Zn3f2 N_R
bond_coeff     2      122.127512        2.014866  # Zn3f2 O_2
bond_coeff     3      153.811316        1.929528  # Zn3f2 N_3
bond_coeff     4      527.945261        1.044419  # H_ N_3
bond_coeff     5      357.440381        1.081418  # H_ C_R
bond_coeff     6      331.069389        1.109401  # H_ C_3
bond_coeff     7      529.459447        1.043423  # H_ N_R
bond_coeff     8      663.718927        1.345073  # C_R N_R
bond_coeff     9      462.655054        1.379256  # C_R C_R
bond_coeff    10      369.943935        1.486000  # C_R C_3
bond_coeff    11      714.557442        1.269010  # C_R O_2
bond_coeff    12      646.680887        1.311940  # C_R O_R
bond_coeff    13      349.795899        1.514000  # C_3 C_3
bond_coeff    14      529.724731        1.450075  # C_3 N_R
bond_coeff    15      528.634538        1.451071  # C_3 N_3
angle_coeff     1                      fourier      183.483089        0.343737        0.374972        0.281246 # N_R Zn3f2 N_R
angle_coeff     2                      fourier      155.087435        0.343737        0.374972        0.281246 # N_R Zn3f2 O_2
angle_coeff     3                      fourier      183.341639        0.343737        0.374972        0.281246 # N_R Zn3f2 N_3
angle_coeff     4                      fourier      154.973760        0.343737        0.374972        0.281246 # O_2 Zn3f2 N_3
angle_coeff     5              cosine/periodic      159.573934              -1               3 # H_ C_R N_R
angle_coeff     6              cosine/periodic      424.885146              -1               3 # N_R C_R N_R
angle_coeff     7              cosine/periodic      114.578032              -1               3 # H_ C_R C_R
angle_coeff     8              cosine/periodic      307.398705              -1               3 # C_R C_R N_R
angle_coeff     9              cosine/periodic      198.274298              -1               3 # C_R C_R C_3
angle_coeff    10              cosine/periodic      273.097456              -1               3 # C_3 C_R N_R
angle_coeff    11              cosine/periodic      393.120049              -1               3 # O_2 C_R O_R
angle_coeff    12              cosine/periodic      266.629989              -1               3 # O_2 C_R C_3
angle_coeff    13              cosine/periodic      255.317313              -1               3 # O_R C_R C_3
angle_coeff    14                      fourier      117.318683        0.343737        0.374972        0.281246 # H_ C_3 C_3
angle_coeff    15                      fourier      170.007371        0.343737        0.374972        0.281246 # H_ C_3 N_R
angle_coeff    16                      fourier      121.777217        0.343737        0.374972        0.281246 # H_ C_3 C_R
angle_coeff    17                      fourier      303.594562        0.343737        0.374972        0.281246 # C_3 C_3 N_R
angle_coeff    18                      fourier      220.229931        0.343737        0.374972        0.281246 # C_3 C_3 C_R
angle_coeff    19                      fourier      312.548166        0.343737        0.374972        0.281246 # N_R C_3 C_R
angle_coeff    20                      fourier       75.498766        0.343737        0.374972        0.281246 # H_ C_3 H_
angle_coeff    21                      fourier      169.780468        0.343737        0.374972        0.281246 # H_ C_3 N_3
angle_coeff    22                      fourier      303.297032        0.343737        0.374972        0.281246 # C_3 C_3 N_3
angle_coeff    23              cosine/periodic      398.603153              -1               3 # N_R C_R O_R
angle_coeff    24                      fourier       51.536168        0.317506        0.313225        0.272502 # Zn3f2 N_3 H_
angle_coeff    25                      fourier      108.360206        0.317506        0.313225        0.272502 # Zn3f2 N_3 C_3
angle_coeff    26                      fourier       97.017167        0.317506        0.313225        0.272502 # H_ N_3 H_
angle_coeff    27                      fourier      144.695053        0.317506        0.313225        0.272502 # H_ N_3 C_3
angle_coeff    28              cosine/periodic       87.429320              -1               3 # Zn3f2 N_R C_R
angle_coeff    29              cosine/periodic      240.001032              -1               3 # C_R N_R C_R
angle_coeff    30              cosine/periodic      108.417222              -1               3 # H_ N_R C_3
angle_coeff    31              cosine/periodic      125.071223              -1               3 # H_ N_R C_R
angle_coeff    32              cosine/periodic      213.564697              -1               3 # C_3 N_R C_R
angle_coeff    33              cosine/periodic       84.412329              -1               3 # Zn3f2 O_2 C_R
dihedral_coeff     1        1.497136              -1               2 # H_ C_R N_R Zn3f2
dihedral_coeff     2        0.083333               1               3 # C_R C_R C_3 C_3
dihedral_coeff     3        2.245703              -1               2 # O_R C_R O_2 Zn3f2
dihedral_coeff     4        0.066219               1               3 # H_ C_3 C_3 C_R
dihedral_coeff     5        0.416667              -1               2 # H_ C_3 N_R H_
dihedral_coeff     6        0.030516               1               3 # H_ C_3 N_3 Zn3f2
improper_coeff     1        2.000000        1.000000       -1.000000        0.000000               0 # H_ C_R N_R N_R
pair_coeff 1 1 0.124 2.461553
pair_coeff 1 2 0.07386474125047755 2.5163434999999996
pair_coeff 1 3 0.11410521460476729 2.946202
pair_coeff 1 4 0.11410521460476729 2.946202
pair_coeff 1 5 0.09249864863877742 2.861121
pair_coeff 1 6 0.09249864863877742 2.861121
pair_coeff 1 7 0.08625543461139129 2.7898495
pair_coeff 1 8 0.08625543461139129 2.7898495
pair_coeff 2 2 0.044 2.571134
pair_coeff 2 3 0.0679705818718657 3.0009924999999997
pair_coeff 2 4 0.0679705818718657 3.0009924999999997
pair_coeff 2 5 0.05509990925582364 2.9159115
pair_coeff 2 6 0.05509990925582364 2.9159115
pair_coeff 2 7 0.05138093031466051 2.84464
pair_coeff 2 8 0.05138093031466051 2.84464
pair_coeff 3 3 0.105 3.430851
pair_coeff 3 4 0.105 3.430851
pair_coeff 3 5 0.08511756575466665 3.34577
pair_coeff 3 6 0.08511756575466665 3.34577
pair_coeff 3 7 0.07937253933193772 3.2744985
pair_coeff 3 8 0.07937253933193772 3.2744985
pair_coeff 4 4 0.105 3.430851
pair_coeff 4 5 0.08511756575466665 3.34577
pair_coeff 4 6 0.08511756575466665 3.34577
pair_coeff 4 7 0.07937253933193772 3.2744985
pair_coeff 4 8 0.07937253933193772 3.2744985
pair_coeff 5 5 0.069 3.2606889999999997
pair_coeff 5 6 0.069 3.2606889999999997
pair_coeff 5 7 0.06434283176858166 3.1894175
pair_coeff 5 8 0.06434283176858166 3.1894175
pair_coeff 6 6 0.069 3.2606889999999997
pair_coeff 6 7 0.06434283176858166 3.1894175
pair_coeff 6 8 0.06434283176858166 3.1894175
pair_coeff 7 7 0.06 3.118146
pair_coeff 7 8 0.06 3.118146
pair_coeff 8 8 0.06 3.118146

# Setup neighbor style
neighbor 1.0 nsq
neigh_modify once no every 1 delay 0 check yes

# Setup minimization style
min_style	     cg
min_modify	     dmax ${dmax} line quadratic
min_modify	     dmax 0.001 line quadratic

# Setup output
thermo		1
thermo_style custom step temp pe press pxx pyy pzz pxy pxz pyz lx ly lz vol
thermo_modify norm no

# Negative deformation

variable delta equal -${up}*${len0}
variable delta equal -0.01*${len0}
variable delta equal -0.01*30.1589120660827
variable deltaxy equal -${up}*xy
variable deltaxy equal -0.01*xy
variable deltaxz equal -${up}*xz
variable deltaxz equal -0.01*xz
variable deltayz equal -${up}*yz
variable deltayz equal -0.01*yz
if "${dir} == 1" then    "change_box all x delta 0 ${delta} xy delta ${deltaxy} xz delta ${deltaxz} remap units box"
if "${dir} == 2" then    "change_box all y delta 0 ${delta} yz delta ${deltayz} remap units box"
if "${dir} == 3" then    "change_box all z delta 0 ${delta} remap units box"
if "${dir} == 4" then    "change_box all yz delta ${delta} remap units box"
if "${dir} == 5" then    "change_box all xz delta ${delta} remap units box"
change_box all xz delta ${delta} remap units box
change_box all xz delta -0.301589120660827 remap units box
Changing box ...
  triclinic box = (-0.00043121516 0.0048660643 -9.7033041e-05) to (37.896208 39.464503 30.158815) with tilt (0.0020704893 -0.29788810 -1.2416220)
if "${dir} == 6" then    "change_box all xy delta ${delta} remap units box"

# Relax atoms positions

minimize ${etol} ${ftol} ${maxiter} ${maxeval}
minimize 1e-10 ${ftol} ${maxiter} ${maxeval}
minimize 1e-10 1e-10 ${maxiter} ${maxeval}
minimize 1e-10 1e-10 100000 ${maxeval}
minimize 1e-10 1e-10 100000 10000000
Neighbor list info ...
  update every 1 steps, delay 0 steps, check yes
  max neighbors/atom: 2000, page size: 100000
  master list distance cutoff = 13.5
  ghost atom cutoff = 13.5
  1 neighbor lists, perpetual/occasional/extra = 1 0 0
  (1) pair lj/cut, perpetual
      attributes: half, newton on
      pair build: half/nsq/newton
      stencil: none
      bin: none
WARNING: Inconsistent image flags (src/lammps-master/src/domain.cpp:812)
Per MPI rank memory allocation (min/avg/max) = 18.81 | 19.00 | 19.19 Mbytes
Step Temp PotEng Press Pxx Pyy Pzz Pxy Pxz Pyz Lx Ly Lz Volume 
       9            0    10340.854   -63.063423   -182.47784    18.802653   -25.515081   -299.68669    14814.534    39.396669    37.896639    39.459637    30.158912    45099.264 
      10            0    10331.941   -55.848454   -164.97224    15.946962   -18.520089   -248.95294    13259.865    36.871301    37.896639    39.459637    30.158912    45099.264 
      11            0    10325.314   -50.298299   -149.32475    11.890627   -13.460773   -205.44155     11781.64    35.619381    37.896639    39.459637    30.158912    45099.264 
      12            0    10320.049   -45.771426   -133.39296    5.7728117   -9.6941259   -167.46466    10358.023    35.101961    37.896639    39.459637    30.158912    45099.264 
      13            0    10316.199   -42.313805   -118.37496   -2.0150931   -6.5513612   -140.39561     9195.509    34.880176    37.896639    39.459637    30.158912    45099.264 
      14            0    10313.222   -39.442065   -104.45766    -10.73864   -3.1298919   -124.11682    8245.4124    34.655325    37.896639    39.459637    30.158912    45099.264 
      15            0    10310.886   -37.034727   -92.327547   -19.454024    0.6773905   -118.37174    7471.5456    34.327279    37.896639    39.459637    30.158912    45099.264 
      16            0    10308.924   -34.866978   -81.276943   -28.283211    4.9592212   -120.28837    6787.7928    33.820616    37.896639    39.459637    30.158912    45099.264 
      17            0    10307.199   -32.810896   -70.768884   -37.450394    9.7865896   -129.41936    6149.6864    33.116284    37.896639    39.459637    30.158912    45099.264 
      18            0    10305.632   -30.776836   -60.272618    -47.42964    15.371751   -146.55867    5521.4295    32.173191    37.896639    39.459637    30.158912    45099.264 
      19            0    10304.435   -29.113193   -51.691483   -56.293203    20.645106   -171.33262    5012.5795    31.213859    37.896639    39.459637    30.158912    45099.264 
      20            0    10303.505   -27.840453   -44.544616   -64.605683    25.628939   -195.04565    4587.2308    30.350127    37.896639    39.459637    30.158912    45099.264 
      21            0    10302.777   -26.941594   -39.527494   -70.714202    29.416913   -233.95255    4268.7428    29.562772    37.896639    39.459637    30.158912    45099.264 
      22            0    10302.343   -26.309491   -32.976806   -81.139569    35.187903   -220.02763    3881.6783    29.384249    37.896639    39.459637    30.158912    45099.264 
      23            0     10301.81   -25.913624   -28.635079   -87.833303    38.727509     -245.534    3588.6671    28.753769    37.896639    39.459637    30.158912    45099.264 
      24            0    10301.517    -25.82604   -29.691964   -85.444122    37.657966    -284.9841    3630.4934    28.361389    37.896639    39.459637    30.158912    45099.264 
      25            0    10301.086   -25.346546   -27.036749   -90.335564    41.332674   -308.51931    3455.9152    28.753066    37.896639    39.459637    30.158912    45099.264 
      26            0    10300.914   -26.104814   -24.922745   -95.148144    41.756446   -302.95109    3290.5339    27.336609    37.896639    39.459637    30.158912    45099.264 
      27            0    10300.576   -26.387146   -22.816545   -100.38857    44.043677   -328.90562    3108.7882    27.334378    37.896639    39.459637    30.158912    45099.264 
      28            0    10300.402   -25.606665   -23.120776   -99.353442    45.654224    -353.0809    3138.1037    28.734231    37.896639    39.459637    30.158912    45099.264 
      29            0     10300.11   -25.368967   -21.497031   -102.52228    47.912411   -365.92189    3015.0016    28.578455    37.896639    39.459637    30.158912    45099.264 
      30            0     10299.94    -26.16218    -19.30737   -108.10668    48.927515    -397.3527    2851.2314    28.605048    37.896639    39.459637    30.158912    45099.264 
      31            0    10299.742   -27.186107   -18.536819   -112.79778     49.77628   -428.05497    2692.3268    28.906382    37.896639    39.459637    30.158912    45099.264 
      32            0    10299.467   -26.792548   -19.139627   -112.17468    50.936662   -430.12607    2687.8904    29.214367    37.896639    39.459637    30.158912    45099.264 
      33            0    10299.283   -26.163231   -17.015885   -115.96966    54.495853   -461.30951    2585.8489    29.487462    37.896639    39.459637    30.158912    45099.264 
      34            0    10299.104   -27.327248   -16.017577    -120.4134    54.449231   -489.65199    2441.2875    29.467016    37.896639    39.459637    30.158912    45099.264 
      35            0    10298.948   -29.147066   -17.075114    -123.5417    53.175611   -513.77574    2316.4317    29.928147    37.896639    39.459637    30.158912    45099.264 
      36            0    10298.732   -28.085914    -15.70332   -124.94384    56.389422   -537.46928    2305.1972    30.473642    37.896639    39.459637    30.158912    45099.264 
      37            0    10298.589   -27.721293   -14.120789   -128.53243    59.489343   -572.76041     2226.261    30.394892    37.896639    39.459637    30.158912    45099.264 
      38            0    10298.433   -29.596738   -15.369095   -131.27294    57.851825     -590.631    2110.2674    30.355968    37.896639    39.459637    30.158912    45099.264 
      39            0    10298.308   -31.747888   -17.897533   -133.93499    56.588857   -613.46166    2018.3271    31.551713    37.896639    39.459637    30.158912    45099.264 
      40            0    10298.113   -30.692332   -16.111424   -136.27784     60.31227   -641.12037    2014.6859    31.268502    37.896639    39.459637    30.158912    45099.264 
      41            0    10297.991   -30.302199    -14.48991   -138.91582    62.499134    -665.7087    1955.8036    29.950104    37.896639    39.459637    30.158912    45099.264 
      42            0     10297.85   -32.213793   -17.064716   -141.03636    61.459697   -682.51672    1878.3379    30.821476    37.896639    39.459637    30.158912    45099.264 
      43            0    10297.791   -33.480116   -19.493969   -142.33156    61.385182   -686.72762    1887.2851    31.875172    37.896639    39.459637    30.158912    45099.264 
      44            0    10297.738   -34.570154   -21.290632   -144.77475    62.354926   -694.73871     1879.051    32.144464    37.896639    39.459637    30.158912    45099.264 
      45            0    10297.583    -34.66485   -20.725203   -147.20343    63.934087    -704.8698    1831.7743    31.215849    37.896639    39.459637    30.158912    45099.264 
      46            0    10297.556    -34.09581   -19.510049   -146.91514    64.137758   -706.02817    1801.7444    30.764687    37.896639    39.459637    30.158912    45099.264 
      47            0    10297.464   -33.901688   -20.608401   -145.44012    64.343454   -675.10843    1796.1981    29.285692    37.896639    39.459637    30.158912    45099.264 
      48            0    10297.384   -36.562923   -23.581196   -152.98108    66.873504   -648.37963      1797.44    29.438725    37.896639    39.459637    30.158912    45099.264 
      49            0    10297.335     -37.3056   -24.188489   -158.06693    70.338613   -621.65386    1791.4819    29.693644    37.896639    39.459637    30.158912    45099.264 
      50            0    10297.255   -34.763564   -21.323091   -155.49716    72.529553   -602.64097    1778.2542    29.136042    37.896639    39.459637    30.158912    45099.264 
      51            0    10297.217   -35.267759   -22.175038   -153.91534    70.287098   -579.83848     1773.333    26.257212    37.896639    39.459637    30.158912    45099.264 
      52            0    10297.168   -40.902495   -29.390318   -160.51438    67.197209   -567.23614    1782.7936    25.612137    37.896639    39.459637    30.158912    45099.264 
      53            0    10297.133   -43.337228   -31.772053    -166.4851    68.245465   -558.27465    1774.0862    27.534092    37.896639    39.459637    30.158912    45099.264 
      54            0     10297.11   -39.321753   -25.444158   -164.53348    72.012379   -551.41342    1753.9627    27.164473    37.896639    39.459637    30.158912    45099.264 
      55            0    10297.086   -34.959529   -17.656182   -163.59483    76.372425   -550.19291    1740.2677    23.723791    37.896639    39.459637    30.158912    45099.264 
      56            0    10297.039   -39.761486   -23.014865   -169.30788    73.038284   -558.92824    1740.3389    23.540556    37.896639    39.459637    30.158912    45099.264 
      57            0    10297.025    -43.76386   -28.644996    -171.8846    69.238022   -562.51227    1727.6635    26.341866    37.896639    39.459637    30.158912    45099.264 
      58            0     10297.02   -42.720239    -26.80799   -171.29292    69.940188   -568.13494    1700.1217    27.051282    37.896639    39.459637    30.158912    45099.264 
      59            0    10296.979   -33.619114   -14.042612   -164.63644    77.821705   -626.03743    1601.8128    26.013971    37.896639    39.459637    30.158912    45099.264 
      60            0    10296.951   -41.705557   -25.393197   -172.17102    72.447546   -662.71058    1550.9604    26.806451    37.896639    39.459637    30.158912    45099.264 
      61            0    10296.949   -46.173609   -29.864401   -177.58207    68.925642   -667.37402    1538.3918    27.123431    37.896639    39.459637    30.158912    45099.264 
      62            0    10296.945   -45.111464   -21.360407   -182.94039    68.966405   -669.61439    1507.3973    24.635966    37.896639    39.459637    30.158912    45099.264 
      63            0    10296.936   -46.931691   -18.283407   -190.60034     68.08867     -673.266    1474.3259    22.326947    37.896639    39.459637    30.158912    45099.264 
      64            0    10296.928   -53.047261   -29.431838   -194.60929    64.899346   -682.44709    1451.0601    22.328328    37.896639    39.459637    30.158912    45099.264 
      65            0    10296.921   -52.570249   -36.415808    -187.9624    66.667459   -697.99209    1427.2212    20.661484    37.896639    39.459637    30.158912    45099.264 
      66            0    10296.913   -53.868039    -42.73136   -185.80725    66.934495    -720.2716    1423.8926    19.414282    37.896639    39.459637    30.158912    45099.264 
      67            0    10296.907   -57.935252   -43.858747   -194.55289    64.605881   -732.04705    1436.0193    19.860436    37.896639    39.459637    30.158912    45099.264 
      68            0    10296.898   -55.966715   -35.860757   -202.08112     70.04173   -737.60994    1431.8912    19.315351    37.896639    39.459637    30.158912    45099.264 
      69            0    10296.883   -50.866511   -32.019596   -205.64041    85.060469   -739.65165    1403.2742    17.536699    37.896639    39.459637    30.158912    45099.264 
      70            0    10296.875   -57.172303   -47.407666   -210.71788    86.608632   -734.32054    1382.0647    16.574101    37.896639    39.459637    30.158912    45099.264 
      71            0    10296.869   -56.563143    -47.12211   -210.39915    87.831829   -718.60207    1370.6396    14.649429    37.896639    39.459637    30.158912    45099.264 
      72            0    10296.865   -52.234077   -37.861089   -206.06678    87.225641   -705.11879    1370.0591    14.149931    37.896639    39.459637    30.158912    45099.264 
      73            0     10296.86    -56.52906   -38.643007   -205.06732    74.123151   -698.38382    1361.9696    18.156978    37.896639    39.459637    30.158912    45099.264 
      74            0    10296.854   -67.804024    -50.07995   -207.40895    54.076831   -687.86757    1354.7906    20.992639    37.896639    39.459637    30.158912    45099.264 
      75            0    10296.846   -75.066987   -58.954614    -212.6228    46.376449   -677.10803    1381.7919    15.610651    37.896639    39.459637    30.158912    45099.264 
      76            0    10296.843   -76.827279   -63.370886   -222.64438     55.53343   -677.05203    1392.1006    10.728544    37.896639    39.459637    30.158912    45099.264 
      77            0    10296.839   -76.692895   -66.146919   -235.14159    71.209821   -676.36273     1388.754    6.9796245    37.896639    39.459637    30.158912    45099.264 
      78            0    10296.836   -71.110967   -57.218954   -234.09111    77.977168   -673.31834    1397.8198    5.6473011    37.896639    39.459637    30.158912    45099.264 
      79            0    10296.833   -68.460611    -50.07277   -229.40531     74.09625   -670.25389    1409.2741    7.9740556    37.896639    39.459637    30.158912    45099.264 
      80            0     10296.83   -72.580236   -55.739786   -229.05717    67.056243   -666.06878    1409.4998    11.529497    37.896639    39.459637    30.158912    45099.264 
      81            0    10296.827   -72.053819   -58.577796   -227.53728    69.953621   -661.50868    1402.5678    12.407637    37.896639    39.459637    30.158912    45099.264 
      82            0    10296.826   -67.448619   -56.480146   -225.91386    80.048145   -656.90254    1397.6943    9.6673913    37.896639    39.459637    30.158912    45099.264 
      83            0    10296.823   -67.934624   -58.870848   -228.63999    83.706963   -654.55382    1393.8391    8.6373634    37.896639    39.459637    30.158912    45099.264 
      84            0    10296.822   -68.808203    -56.76021   -232.15023     82.48583   -657.93601    1383.1921    10.632915    37.896639    39.459637    30.158912    45099.264 
      85            0     10296.82   -69.669564   -51.696198   -235.08483    77.772334   -663.13003    1372.5673    12.826396    37.896639    39.459637    30.158912    45099.264 
      86            0    10296.818   -78.675493   -60.231314   -240.96584    65.170678    -668.1663    1371.0249     12.90953    37.896639    39.459637    30.158912    45099.264 
      87            0    10296.817   -83.668289   -66.724245   -242.70897    58.428344   -669.06927    1368.6259    11.401633    37.896639    39.459637    30.158912    45099.264 
      88            0    10296.815   -84.547454   -70.077818   -239.13673    55.572191   -669.46311    1369.5555    6.5798194    37.896639    39.459637    30.158912    45099.264 
      89            0    10296.812   -86.569907   -75.458297   -239.47114    55.219717   -670.22994    1377.8869    2.5991959    37.896639    39.459637    30.158912    45099.264 
      90            0    10296.808   -86.972147   -76.131703   -244.05242    59.267681    -663.6668    1392.9718 -0.019132157    37.896639    39.459637    30.158912    45099.264 
      91            0    10296.805   -81.241495   -65.178235   -247.37089    68.824638   -665.55479    1401.3209   0.26207328    37.896639    39.459637    30.158912    45099.264 
      92            0    10296.803   -78.965476   -61.415071   -252.73334    77.251985   -673.96056     1402.295    3.6331234    37.896639    39.459637    30.158912    45099.264 
      93            0    10296.801   -80.437273   -66.780039   -253.06426    78.532478   -676.32124    1404.5898    4.9894438    37.896639    39.459637    30.158912    45099.264 
      94            0    10296.798    -77.54179   -66.415484   -247.13982    80.929936    -681.1861    1409.4303    3.5798205    37.896639    39.459637    30.158912    45099.264 
      95            0    10296.796   -77.038739   -65.287881   -246.38127    80.552936   -683.76398    1414.8153    4.6624106    37.896639    39.459637    30.158912    45099.264 
      96            0    10296.794    -82.55692   -71.269008   -249.60818    73.206434   -683.63273    1421.1963    7.5359553    37.896639    39.459637    30.158912    45099.264 
      97            0    10296.792   -86.423551   -77.522482   -250.76791     69.01974   -680.93269    1426.0446    7.7568739    37.896639    39.459637    30.158912    45099.264 
      98            0     10296.79   -88.937834   -82.307592   -251.31915    66.813244    -672.9516    1436.0016    6.0589056    37.896639    39.459637    30.158912    45099.264 
      99            0     10296.79   -91.483348   -83.545389   -255.20499    64.300335   -671.40587    1441.0161    5.1684258    37.896639    39.459637    30.158912    45099.264 
     100            0    10296.788   -92.084999   -80.836837   -258.30791     62.88975   -671.70747    1439.9147    3.8703996    37.896639    39.459637    30.158912    45099.264 
     101            0    10296.788   -91.476043   -78.862291   -257.45812    61.892282   -669.24645    1442.2429    1.6324534    37.896639    39.459637    30.158912    45099.264 
     102            0    10296.787   -91.660517   -80.026847   -257.12619    62.171486   -668.87892    1442.8765   0.70128289    37.896639    39.459637    30.158912    45099.264 
     103            0    10296.787    -90.98279   -80.136169    -258.3029      65.4907   -668.95708    1437.7145    1.3508491    37.896639    39.459637    30.158912    45099.264 
     104            0    10296.786   -88.405914   -77.242183   -258.13219    70.156636    -667.7456    1437.0408    1.4435191    37.896639    39.459637    30.158912    45099.264 
     105            0    10296.786   -88.405914   -77.242183   -258.13219    70.156636    -667.7456    1437.0408    1.4435191    37.896639    39.459637    30.158912    45099.264 
Loop time of 1.18183 on 8 procs for 96 steps with 3712 atoms

99.6% CPU use with 8 MPI tasks x 1 OpenMP threads

Minimization stats:
  Stopping criterion = linesearch alpha is zero
  Energy initial, next-to-last, final = 
      10340.8537794842   10296.7864370803   10296.7864370803
  Force two-norm initial, final = 276.23035 1.1443607
  Force max component initial, final = 7.4627933 0.042400364
  Final line search alpha, max atom move = 5.2081105e-09 2.2082578e-10
  Iterations, force evaluations = 96 197

MPI task timing breakdown:
Section |  min time  |  avg time  |  max time  |%varavg| %total
---------------------------------------------------------------
Pair    | 0.64054    | 0.86892    | 1.0946     |  17.0 | 73.52
Bond    | 0.041586   | 0.042694   | 0.04388    |   0.4 |  3.61
Neigh   | 0          | 0          | 0          |   0.0 |  0.00
Comm    | 0.024425   | 0.25071    | 0.47923    |  31.7 | 21.21
Output  | 0.0034826  | 0.0046283  | 0.011549   |   3.8 |  0.39
Modify  | 0          | 0          | 0          |   0.0 |  0.00
Other   |            | 0.01488    |            |       |  1.26

Nlocal:        464.000 ave         464 max         464 min
Histogram: 8 0 0 0 0 0 0 0 0 0
Nghost:        7145.00 ave        7145 max        7145 min
Histogram: 8 0 0 0 0 0 0 0 0 0
Neighs:        195801.0 ave      248365 max      143242 min
Histogram: 1 1 1 1 0 0 1 1 1 1

Total # of neighbors = 1566410
Ave neighs/atom = 421.98545
Ave special neighs/atom = 13.034483
Neighbor list builds = 0
Dangerous builds = 0

# Obtain new stress tensor

variable tmp equal pxx
variable pxx1 equal ${tmp}
variable pxx1 equal -77.2421834750472
variable tmp equal pyy
variable pyy1 equal ${tmp}
variable pyy1 equal -258.132192981144
variable tmp equal pzz
variable pzz1 equal ${tmp}
variable pzz1 equal 70.1566357530336
variable tmp equal pxy
variable pxy1 equal ${tmp}
variable pxy1 equal -667.745598812447
variable tmp equal pxz
variable pxz1 equal ${tmp}
variable pxz1 equal 1437.04078523721
variable tmp equal pyz
variable pyz1 equal ${tmp}
variable pyz1 equal 1.4435190636846

# Compute elastic constant from pressure tensor

variable C1neg equal ${d1}
variable C1neg equal -0.80984021503752
variable C2neg equal ${d2}
variable C2neg equal -2.63048655927688
variable C3neg equal ${d3}
variable C3neg equal 0.673436052722783
variable C4neg equal ${d4}
variable C4neg equal -0.318447163785958
variable C5neg equal ${d5}
variable C5neg equal 14.6465456142512
variable C6neg equal ${d6}
variable C6neg equal -6.75880238844338

# Reset box and simulation parameters

clear
OMP_NUM_THREADS environment is not set. Defaulting to 1 thread. (src/lammps-master/src/comm.cpp:94)
  using 1 OpenMP thread(s) per MPI task
box tilt large
read_restart restart.equil
Reading restart file ...
  restart file = 30 Nov 2020, LAMMPS = 30 Nov 2020
  restoring atom style full from restart
  triclinic box = (-0.00043121516 0.0048660643 -9.7033041e-05) to (37.896208 39.464503 30.158815) with tilt (0.0020704893 0.0037010238 -1.2416220)
  2 by 2 by 2 MPI processor grid
  restoring pair style lj/cut from restart
  restoring bond style harmonic from restart
  restoring angle style hybrid from restart
  restoring dihedral style harmonic from restart
  restoring improper style fourier from restart
  3712 atoms
  4096 bonds
  7808 angles
  9856 dihedrals
  3072 impropers
Finding 1-2 1-3 1-4 neighbors ...
  special bond factors lj:    0        0        1       
  special bond factors coul:  0        0        0       
     4 = max # of 1-2 neighbors
     8 = max # of 1-3 neighbors
    21 = max # of 1-4 neighbors
    25 = max # of special neighbors
  special bonds CPU = 0.001 seconds
  read_restart CPU = 0.004 seconds
include potential.mod
pair_style      lj/cut 12.5
bond_style      harmonic
angle_style     hybrid cosine/periodic fourier
dihedral_style  harmonic
improper_style  fourier


special_bonds   lj 0.0 0.0 1.0
pair_modify     tail yes mix arithmetic
include data.pair
bond_coeff     1      154.048673        1.928536  # Zn3f2 N_R
bond_coeff     2      122.127512        2.014866  # Zn3f2 O_2
bond_coeff     3      153.811316        1.929528  # Zn3f2 N_3
bond_coeff     4      527.945261        1.044419  # H_ N_3
bond_coeff     5      357.440381        1.081418  # H_ C_R
bond_coeff     6      331.069389        1.109401  # H_ C_3
bond_coeff     7      529.459447        1.043423  # H_ N_R
bond_coeff     8      663.718927        1.345073  # C_R N_R
bond_coeff     9      462.655054        1.379256  # C_R C_R
bond_coeff    10      369.943935        1.486000  # C_R C_3
bond_coeff    11      714.557442        1.269010  # C_R O_2
bond_coeff    12      646.680887        1.311940  # C_R O_R
bond_coeff    13      349.795899        1.514000  # C_3 C_3
bond_coeff    14      529.724731        1.450075  # C_3 N_R
bond_coeff    15      528.634538        1.451071  # C_3 N_3
angle_coeff     1                      fourier      183.483089        0.343737        0.374972        0.281246 # N_R Zn3f2 N_R
angle_coeff     2                      fourier      155.087435        0.343737        0.374972        0.281246 # N_R Zn3f2 O_2
angle_coeff     3                      fourier      183.341639        0.343737        0.374972        0.281246 # N_R Zn3f2 N_3
angle_coeff     4                      fourier      154.973760        0.343737        0.374972        0.281246 # O_2 Zn3f2 N_3
angle_coeff     5              cosine/periodic      159.573934              -1               3 # H_ C_R N_R
angle_coeff     6              cosine/periodic      424.885146              -1               3 # N_R C_R N_R
angle_coeff     7              cosine/periodic      114.578032              -1               3 # H_ C_R C_R
angle_coeff     8              cosine/periodic      307.398705              -1               3 # C_R C_R N_R
angle_coeff     9              cosine/periodic      198.274298              -1               3 # C_R C_R C_3
angle_coeff    10              cosine/periodic      273.097456              -1               3 # C_3 C_R N_R
angle_coeff    11              cosine/periodic      393.120049              -1               3 # O_2 C_R O_R
angle_coeff    12              cosine/periodic      266.629989              -1               3 # O_2 C_R C_3
angle_coeff    13              cosine/periodic      255.317313              -1               3 # O_R C_R C_3
angle_coeff    14                      fourier      117.318683        0.343737        0.374972        0.281246 # H_ C_3 C_3
angle_coeff    15                      fourier      170.007371        0.343737        0.374972        0.281246 # H_ C_3 N_R
angle_coeff    16                      fourier      121.777217        0.343737        0.374972        0.281246 # H_ C_3 C_R
angle_coeff    17                      fourier      303.594562        0.343737        0.374972        0.281246 # C_3 C_3 N_R
angle_coeff    18                      fourier      220.229931        0.343737        0.374972        0.281246 # C_3 C_3 C_R
angle_coeff    19                      fourier      312.548166        0.343737        0.374972        0.281246 # N_R C_3 C_R
angle_coeff    20                      fourier       75.498766        0.343737        0.374972        0.281246 # H_ C_3 H_
angle_coeff    21                      fourier      169.780468        0.343737        0.374972        0.281246 # H_ C_3 N_3
angle_coeff    22                      fourier      303.297032        0.343737        0.374972        0.281246 # C_3 C_3 N_3
angle_coeff    23              cosine/periodic      398.603153              -1               3 # N_R C_R O_R
angle_coeff    24                      fourier       51.536168        0.317506        0.313225        0.272502 # Zn3f2 N_3 H_
angle_coeff    25                      fourier      108.360206        0.317506        0.313225        0.272502 # Zn3f2 N_3 C_3
angle_coeff    26                      fourier       97.017167        0.317506        0.313225        0.272502 # H_ N_3 H_
angle_coeff    27                      fourier      144.695053        0.317506        0.313225        0.272502 # H_ N_3 C_3
angle_coeff    28              cosine/periodic       87.429320              -1               3 # Zn3f2 N_R C_R
angle_coeff    29              cosine/periodic      240.001032              -1               3 # C_R N_R C_R
angle_coeff    30              cosine/periodic      108.417222              -1               3 # H_ N_R C_3
angle_coeff    31              cosine/periodic      125.071223              -1               3 # H_ N_R C_R
angle_coeff    32              cosine/periodic      213.564697              -1               3 # C_3 N_R C_R
angle_coeff    33              cosine/periodic       84.412329              -1               3 # Zn3f2 O_2 C_R
dihedral_coeff     1        1.497136              -1               2 # H_ C_R N_R Zn3f2
dihedral_coeff     2        0.083333               1               3 # C_R C_R C_3 C_3
dihedral_coeff     3        2.245703              -1               2 # O_R C_R O_2 Zn3f2
dihedral_coeff     4        0.066219               1               3 # H_ C_3 C_3 C_R
dihedral_coeff     5        0.416667              -1               2 # H_ C_3 N_R H_
dihedral_coeff     6        0.030516               1               3 # H_ C_3 N_3 Zn3f2
improper_coeff     1        2.000000        1.000000       -1.000000        0.000000               0 # H_ C_R N_R N_R
pair_coeff 1 1 0.124 2.461553
pair_coeff 1 2 0.07386474125047755 2.5163434999999996
pair_coeff 1 3 0.11410521460476729 2.946202
pair_coeff 1 4 0.11410521460476729 2.946202
pair_coeff 1 5 0.09249864863877742 2.861121
pair_coeff 1 6 0.09249864863877742 2.861121
pair_coeff 1 7 0.08625543461139129 2.7898495
pair_coeff 1 8 0.08625543461139129 2.7898495
pair_coeff 2 2 0.044 2.571134
pair_coeff 2 3 0.0679705818718657 3.0009924999999997
pair_coeff 2 4 0.0679705818718657 3.0009924999999997
pair_coeff 2 5 0.05509990925582364 2.9159115
pair_coeff 2 6 0.05509990925582364 2.9159115
pair_coeff 2 7 0.05138093031466051 2.84464
pair_coeff 2 8 0.05138093031466051 2.84464
pair_coeff 3 3 0.105 3.430851
pair_coeff 3 4 0.105 3.430851
pair_coeff 3 5 0.08511756575466665 3.34577
pair_coeff 3 6 0.08511756575466665 3.34577
pair_coeff 3 7 0.07937253933193772 3.2744985
pair_coeff 3 8 0.07937253933193772 3.2744985
pair_coeff 4 4 0.105 3.430851
pair_coeff 4 5 0.08511756575466665 3.34577
pair_coeff 4 6 0.08511756575466665 3.34577
pair_coeff 4 7 0.07937253933193772 3.2744985
pair_coeff 4 8 0.07937253933193772 3.2744985
pair_coeff 5 5 0.069 3.2606889999999997
pair_coeff 5 6 0.069 3.2606889999999997
pair_coeff 5 7 0.06434283176858166 3.1894175
pair_coeff 5 8 0.06434283176858166 3.1894175
pair_coeff 6 6 0.069 3.2606889999999997
pair_coeff 6 7 0.06434283176858166 3.1894175
pair_coeff 6 8 0.06434283176858166 3.1894175
pair_coeff 7 7 0.06 3.118146
pair_coeff 7 8 0.06 3.118146
pair_coeff 8 8 0.06 3.118146

# Setup neighbor style
neighbor 1.0 nsq
neigh_modify once no every 1 delay 0 check yes

# Setup minimization style
min_style	     cg
min_modify	     dmax ${dmax} line quadratic
min_modify	     dmax 0.001 line quadratic

# Setup output
thermo		1
thermo_style custom step temp pe press pxx pyy pzz pxy pxz pyz lx ly lz vol
thermo_modify norm no

# Positive deformation

variable delta equal ${up}*${len0}
variable delta equal 0.01*${len0}
variable delta equal 0.01*30.1589120660827
variable deltaxy equal ${up}*xy
variable deltaxy equal 0.01*xy
variable deltaxz equal ${up}*xz
variable deltaxz equal 0.01*xz
variable deltayz equal ${up}*yz
variable deltayz equal 0.01*yz
if "${dir} == 1" then    "change_box all x delta 0 ${delta} xy delta ${deltaxy} xz delta ${deltaxz} remap units box"
if "${dir} == 2" then    "change_box all y delta 0 ${delta} yz delta ${deltayz} remap units box"
if "${dir} == 3" then    "change_box all z delta 0 ${delta} remap units box"
if "${dir} == 4" then    "change_box all yz delta ${delta} remap units box"
if "${dir} == 5" then    "change_box all xz delta ${delta} remap units box"
change_box all xz delta ${delta} remap units box
change_box all xz delta 0.301589120660827 remap units box
Changing box ...
  triclinic box = (-0.00043121516 0.0048660643 -9.7033041e-05) to (37.896208 39.464503 30.158815) with tilt (0.0020704893 0.30529014 -1.2416220)
if "${dir} == 6" then    "change_box all xy delta ${delta} remap units box"

# Relax atoms positions

minimize ${etol} ${ftol} ${maxiter} ${maxeval}
minimize 1e-10 ${ftol} ${maxiter} ${maxeval}
minimize 1e-10 1e-10 ${maxiter} ${maxeval}
minimize 1e-10 1e-10 100000 ${maxeval}
minimize 1e-10 1e-10 100000 10000000
Neighbor list info ...
  update every 1 steps, delay 0 steps, check yes
  max neighbors/atom: 2000, page size: 100000
  master list distance cutoff = 13.5
  ghost atom cutoff = 13.5
  1 neighbor lists, perpetual/occasional/extra = 1 0 0
  (1) pair lj/cut, perpetual
      attributes: half, newton on
      pair build: half/nsq/newton
      stencil: none
      bin: none
WARNING: Inconsistent image flags (src/lammps-master/src/domain.cpp:812)
Per MPI rank memory allocation (min/avg/max) = 18.81 | 19.00 | 19.19 Mbytes
Step Temp PotEng Press Pxx Pyy Pzz Pxy Pxz Pyz Lx Ly Lz Volume 
       9            0    10340.969   -63.623946   -184.11876    19.627557   -26.380638    298.39635   -14831.835    39.046502    37.896639    39.459637    30.158912    45099.264 
      10            0    10332.019   -56.420093   -166.50602     16.67797   -19.432229    247.58618    -13270.69    36.662199    37.896639    39.459637    30.158912    45099.264 
      11            0    10325.384   -50.891564    -150.7623    12.488527   -14.400918    204.24057   -11787.803    35.550643    37.896639    39.459637    30.158912    45099.264 
      12            0    10320.133   -46.418386    -134.7894    6.2021522   -10.667909    166.80268   -10366.306       35.177    37.896639    39.459637    30.158912    45099.264 
      13            0    10316.291   -43.000374   -119.73587   -1.7433477   -7.5219095    140.30021   -9205.6457     35.08338    37.896639    39.459637    30.158912    45099.264 
      14            0    10313.317   -40.142798   -105.77717   -10.605725   -4.0455033    124.47512   -8255.7387    34.954146    37.896639    39.459637    30.158912    45099.264 
      15            0    10310.982    -37.74576   -93.621504   -19.436667  -0.17910846    119.09742   -7481.8683    34.693293    37.896639    39.459637    30.158912    45099.264 
      16            0    10309.021   -35.575472   -82.539996   -28.368786    4.1823678      121.367   -6797.9691    34.232871    37.896639    39.459637    30.158912    45099.264 
      17            0    10307.301   -33.498796   -71.987072   -37.625874    9.1165581    130.89613   -6159.4908    33.556574    37.896639    39.459637    30.158912    45099.264 
      18            0    10305.735   -31.438368   -61.423842   -47.704175    14.812912    148.54541   -5530.5398    32.638152    37.896639    39.459637    30.158912    45099.264 
      19            0    10304.544   -29.764264   -52.813513   -56.622328     20.14305    173.80705   -5023.1931    31.694015    37.896639    39.459637    30.158912    45099.264 
      20            0    10303.616   -28.474123   -45.628682   -64.993819    25.200133    197.80867   -4599.3262    30.868611    37.896639    39.459637    30.158912    45099.264 
      21            0    10302.886    -27.61108   -40.606403   -71.138864    28.912026    237.56142   -4280.9128    30.040709    37.896639    39.459637    30.158912    45099.264 
      22            0    10302.453   -26.848204   -33.891757   -81.809712    35.156857    220.57566   -3896.6218    30.150729    37.896639    39.459637    30.158912    45099.264 
      23            0    10301.911   -26.454788   -29.573164   -88.433716    38.642517    247.71634   -3607.1131    29.524495    37.896639    39.459637    30.158912    45099.264 
      24            0    10301.632   -26.484007   -30.734974   -85.931775    37.214728    289.74866   -3647.0481    28.925423    37.896639    39.459637    30.158912    45099.264 
      25            0    10301.203   -25.959495   -27.955793   -91.009799    41.087109    311.31897   -3472.1224    29.446011    37.896639    39.459637    30.158912    45099.264 
      26            0    10301.038   -26.832443   -25.987657   -95.642162    41.132489    309.83302   -3306.6678    27.848125    37.896639    39.459637    30.158912    45099.264 
      27            0    10300.694    -27.06894   -23.836056   -100.92078    43.550016    336.45294   -3127.1662    27.977445    37.896639    39.459637    30.158912    45099.264 
      28            0    10300.536   -26.209179   -24.035174   -99.968712    45.376347    355.15948   -3161.0988    29.486818    37.896639    39.459637    30.158912    45099.264 
      29            0    10300.239    -26.11324   -22.386219   -103.23127    47.277766    369.48817   -3033.6746    29.059856    37.896639    39.459637    30.158912    45099.264 
      30            0     10300.09   -26.675005   -20.275278   -108.54993    48.800197    401.24892   -2888.9859    29.717018    37.896639    39.459637    30.158912    45099.264 
      31            0    10299.884   -27.770737   -19.586233   -113.25903    49.533057    431.65166    -2730.728    30.103663    37.896639    39.459637    30.158912    45099.264 
      32            0    10299.617   -27.597273   -20.247279   -112.45609    49.911547    429.67622    -2724.013    29.620094    37.896639    39.459637    30.158912    45099.264 
      33            0     10299.43   -26.755734   -17.749826   -116.63546    54.118082    462.32224   -2623.7882    30.132645    37.896639    39.459637    30.158912    45099.264 
      34            0    10299.239   -27.947684   -16.741793   -121.45072    54.349461    494.79019   -2469.7386    30.506302    37.896639    39.459637    30.158912    45099.264 
      35            0    10299.082   -30.012819   -18.011727   -124.43528    52.408548    516.31292   -2341.2648    30.690506    37.896639    39.459637    30.158912    45099.264 
      36            0    10298.867   -28.922111   -16.338697   -126.18508    55.757438    538.07711   -2329.4694    31.206871    37.896639    39.459637    30.158912    45099.264 
      37            0    10298.728   -28.402585   -14.418697   -130.16514     59.37608    575.91282   -2248.7041    31.325985    37.896639    39.459637    30.158912    45099.264 
      38            0    10298.571   -30.451019   -15.972949    -132.6711    57.290993    593.54311   -2128.8943    31.188359    37.896639    39.459637    30.158912    45099.264 
      39            0    10298.447   -32.549872   -18.240018   -135.42509    56.015493    613.59008    -2035.227       32.279    37.896639    39.459637    30.158912    45099.264 
      40            0    10298.257   -31.230418    -15.87093   -138.30675    60.486424    645.22855   -2034.4956    32.128824    37.896639    39.459637    30.158912    45099.264 
      41            0    10298.129   -31.134741   -14.756065   -140.84716       62.199     671.1492   -1979.6727    31.009477    37.896639    39.459637    30.158912    45099.264 
      42            0    10298.042   -33.351028    -17.85529   -141.97592    59.778122    674.67001   -1906.2861    32.092976    37.896639    39.459637    30.158912    45099.264 
      43            0    10297.963    -35.42745   -20.952522   -144.47984    59.150009    686.53845   -1855.1721    33.095982    37.896639    39.459637    30.158912    45099.264 
      44            0    10297.797   -34.731958   -19.708466   -146.97308    62.485671    703.80556    -1860.704    31.955167    37.896639    39.459637    30.158912    45099.264 
      45            0    10297.775   -33.174784   -16.718544   -146.53035     63.72454    699.03732   -1840.3504    30.747152    37.896639    39.459637    30.158912    45099.264 
      46            0    10297.714   -31.417759   -13.269587   -146.97792    65.994232    689.92803   -1803.6733    29.064121    37.896639    39.459637    30.158912    45099.264 
      47            0    10297.566   -33.514086   -16.988121   -149.62964    66.075509    685.53913   -1805.4939     29.57868    37.896639    39.459637    30.158912    45099.264 
      48            0    10297.555   -35.730138   -21.068469   -151.13923    65.017285    682.91581   -1821.7579    30.438903    37.896639    39.459637    30.158912    45099.264 
      49            0    10297.481   -40.433464   -33.390643   -160.29637    72.386619    659.36611   -1799.0544    33.940094    37.896639    39.459637    30.158912    45099.264 
      50            0    10297.414   -32.062775   -16.469225   -152.30963    72.590525    650.97443   -1800.0533    28.881922    37.896639    39.459637    30.158912    45099.264 
      51            0    10297.375   -30.362277   -7.5395087   -150.57988    67.032561    633.89275   -1793.9942    25.305605    37.896639    39.459637    30.158912    45099.264 
      52            0    10297.285   -43.463183   -23.647475    -164.2758    57.533721    604.96767   -1771.7885    27.681733    37.896639    39.459637    30.158912    45099.264 
      53            0    10297.249    -50.92615   -41.663426   -174.57057    63.455549    594.85667    -1752.643     31.15754    37.896639    39.459637    30.158912    45099.264 
      54            0    10297.202   -42.445149   -33.905509   -171.84914      78.4192    588.88031   -1728.5892     30.30857    37.896639    39.459637    30.158912    45099.264 
      55            0    10297.181   -37.495065   -21.202907   -167.93246    76.650174    581.39661   -1722.8764    27.426586    37.896639    39.459637    30.158912    45099.264 
      56            0    10297.173   -44.402522   -22.445248   -170.06939    59.307068    581.32475   -1734.7762    25.208743    37.896639    39.459637    30.158912    45099.264 
      57            0    10297.155   -54.882619   -34.845908   -175.95501    46.153062    597.23402   -1721.0987    26.863889    37.896639    39.459637    30.158912    45099.264 
      58            0    10297.119   -48.001227   -32.575235   -175.77381    64.345361    615.11773   -1639.1933    30.395081    37.896639    39.459637    30.158912    45099.264 
      59            0    10297.095   -33.436217   -14.724977   -170.25593    84.672256    615.36222   -1616.6323    27.669116    37.896639    39.459637    30.158912    45099.264 
      60            0    10297.079   -35.946548   -15.671775   -174.23455    82.066684    628.85531   -1629.3479    25.380989    37.896639    39.459637    30.158912    45099.264 
      61            0    10297.067   -49.170556   -31.263458   -182.70814    66.459925    641.37639   -1612.8731    26.083585    37.896639    39.459637    30.158912    45099.264 
      62            0    10297.059   -52.503129   -35.318494   -183.26305     61.07216    642.75879   -1569.3537    25.640776    37.896639    39.459637    30.158912    45099.264 
      63            0    10297.053   -46.169216    -27.48149   -179.13699    68.110832    647.07191   -1554.7673    24.273732    37.896639    39.459637    30.158912    45099.264 
      64            0    10297.048   -42.760029   -23.655095   -180.26465    75.639657    654.83242   -1565.3869    24.839923    37.896639    39.459637    30.158912    45099.264 
      65            0    10297.042   -46.850414   -28.507108   -185.92738    73.883247    654.35224   -1560.3436    25.963437    37.896639    39.459637    30.158912    45099.264 
      66            0    10297.035   -52.259424   -33.232976   -188.29835    64.753052    654.58774   -1528.3785    24.458815    37.896639    39.459637    30.158912    45099.264 
      67            0     10297.03   -52.914115   -33.047082   -187.46128    61.766018    663.65603   -1507.4594    22.481215    37.896639    39.459637    30.158912    45099.264 
      68            0    10297.026   -50.724881      -32.486   -188.52887    68.840226    666.83805   -1509.1589    22.587239    37.896639    39.459637    30.158912    45099.264 
      69            0    10297.023   -50.085257   -33.387632   -191.64036    74.772221     664.5541   -1504.8616    23.209124    37.896639    39.459637    30.158912    45099.264 
      70            0     10297.02   -50.954072   -32.719823    -193.5067    73.364312    667.84441   -1487.0686    23.118416    37.896639    39.459637    30.158912    45099.264 
      71            0    10297.016   -51.722663   -30.772085   -193.47885    69.082943    673.33546    -1465.796    22.299589    37.896639    39.459637    30.158912    45099.264 
      72            0    10297.013   -52.069963   -32.007931   -193.31753     69.11557    671.61013   -1458.4057    21.468958    37.896639    39.459637    30.158912    45099.264 
      73            0    10297.008   -52.240325   -36.078074   -195.72585    75.082946    673.10453   -1450.7328    21.103713    37.896639    39.459637    30.158912    45099.264 
      74            0    10297.005   -51.879729   -36.043854   -198.15611    78.560774    679.93277   -1438.0512    21.265782    37.896639    39.459637    30.158912    45099.264 
      75            0    10297.001   -52.519998   -34.511634   -200.08731    77.038949    681.82586   -1417.8299    20.522533    37.896639    39.459637    30.158912    45099.264 
      76            0    10296.998   -55.241096   -37.243831   -200.68681    72.207355    678.64077   -1414.5098    18.973843    37.896639    39.459637    30.158912    45099.264 
      77            0    10296.992   -59.436578   -43.391462   -202.45313    67.534858    681.30099   -1421.7992    16.987512    37.896639    39.459637    30.158912    45099.264 
      78            0    10296.988   -59.011828   -43.849792   -204.93159    71.745896    685.05641   -1425.3344    17.093756    37.896639    39.459637    30.158912    45099.264 
      79            0     10296.98   -57.606178   -42.656184   -208.83054     78.66819    682.91206    -1420.559    17.714027    37.896639    39.459637    30.158912    45099.264 
      80            0    10296.976   -60.652245   -45.873245   -211.53163    75.448136     682.8288   -1420.3547    16.713169    37.896639    39.459637    30.158912    45099.264 
      81            0    10296.971   -65.671012   -50.798902   -213.17622    66.962088    684.34795   -1435.9399    14.330009    37.896639    39.459637    30.158912    45099.264 
      82            0    10296.967   -66.883011    -51.62956   -214.06946    65.049985    680.65012   -1446.5466    13.067454    37.896639    39.459637    30.158912    45099.264 
      83            0    10296.964   -64.814297   -49.941362    -216.6448    72.143264    679.40185   -1437.9996    13.758735    37.896639    39.459637    30.158912    45099.264 
      84            0    10296.961    -63.98307   -50.309054   -219.82364    78.183486    684.32252   -1430.1513    14.487529    37.896639    39.459637    30.158912    45099.264 
      85            0    10296.955   -66.529465   -53.130103   -221.67631    75.218023    682.66618   -1442.4308     12.93222    37.896639    39.459637    30.158912    45099.264 
      86            0    10296.951   -68.376334   -52.947092   -222.98399    70.802084    674.42293   -1448.4613    10.944745    37.896639    39.459637    30.158912    45099.264 
      87            0    10296.947   -68.778695   -51.915694   -227.32651    72.906123     677.7357   -1428.8788    10.849999    37.896639    39.459637    30.158912    45099.264 
      88            0    10296.943    -70.37803   -55.371645   -231.89889    76.136446    683.36106   -1415.2075    11.151657    37.896639    39.459637    30.158912    45099.264 
      89            0    10296.941   -71.739872   -58.485055   -232.87407    76.139515     678.6377   -1417.9045    10.309467    37.896639    39.459637    30.158912    45099.264 
      90            0    10296.938   -72.273229   -58.700173   -232.35987    74.240355    674.33383   -1421.8389    8.8876942    37.896639    39.459637    30.158912    45099.264 
      91            0    10296.937   -73.595742   -59.215717   -233.29884    71.727336    677.32027   -1418.8021    8.4490888    37.896639    39.459637    30.158912    45099.264 
      92            0    10296.934   -77.045005   -62.683231   -236.41613    67.964344    679.13571   -1409.2552    8.7968679    37.896639    39.459637    30.158912    45099.264 
      93            0    10296.933   -78.056873    -64.27802   -237.66671    67.774109    674.75107   -1406.3865    8.6864866    37.896639    39.459637    30.158912    45099.264 
      94            0    10296.931   -76.491659   -63.226458   -237.25895    71.010433    671.02414   -1413.8521    7.4049228    37.896639    39.459637    30.158912    45099.264 
      95            0     10296.93   -76.895515   -63.450555   -237.93266    70.696674    672.58238   -1417.0316    6.9737775    37.896639    39.459637    30.158912    45099.264 
      96            0    10296.928   -80.350478   -66.401991   -241.02524    66.375794    672.83773   -1411.4152    7.3895744    37.896639    39.459637    30.158912    45099.264 
      97            0    10296.927   -81.249585   -67.588583   -242.25227    66.092101    671.17073   -1410.6624    7.2250423    37.896639    39.459637    30.158912    45099.264 
      98            0    10296.924   -78.854827   -66.433404   -241.81058    71.679503    669.44057   -1421.8942    6.1380623    37.896639    39.459637    30.158912    45099.264 
      99            0    10296.924   -76.921062   -64.412146   -241.68326    75.332214    669.03697   -1427.6171    6.2418886    37.896639    39.459637    30.158912    45099.264 
     100            0    10296.922    -77.06781   -62.689477   -243.69485      75.1809    669.76709   -1425.7384    7.6189093    37.896639    39.459637    30.158912    45099.264 
     101            0    10296.921   -78.896163   -64.120078   -245.35555    72.787143    670.82826   -1429.2887    7.3292536    37.896639    39.459637    30.158912    45099.264 
     102            0    10296.919   -80.333925   -66.971173   -245.83393    71.803324    669.64823   -1441.1517    5.3659102    37.896639    39.459637    30.158912    45099.264 
     103            0    10296.918   -80.060575   -67.490803   -245.92816    73.237234    668.07456   -1444.1019    4.7911507    37.896639    39.459637    30.158912    45099.264 
     104            0    10296.917   -80.373225   -67.754279   -247.23846    73.873066    669.45349   -1440.6554    5.7285608    37.896639    39.459637    30.158912    45099.264 
     105            0    10296.917   -82.465522   -69.708689   -248.60239     70.91451    671.39824   -1441.7593    6.1150739    37.896639    39.459637    30.158912    45099.264 
     106            0    10296.916   -85.964543   -73.080578    -248.9786    64.165549    670.17407   -1449.1769    4.8451178    37.896639    39.459637    30.158912    45099.264 
     107            0    10296.915   -86.693597   -73.646771   -248.58013    62.146111    668.40996   -1451.7488    3.8486016    37.896639    39.459637    30.158912    45099.264 
     108            0    10296.914   -85.538247   -72.791454   -249.30216    65.478871    669.92114   -1448.6779    4.4735402    37.896639    39.459637    30.158912    45099.264 
     109            0    10296.914   -86.018734   -74.008071   -250.97113    66.922996    671.57811   -1447.4861    5.3719754    37.896639    39.459637    30.158912    45099.264 
     110            0    10296.914   -87.345317   -75.773017    -251.6749    65.411969    670.44758   -1450.2744     5.096037    37.896639    39.459637    30.158912    45099.264 
     111            0    10296.913   -87.264848   -75.441418   -251.03981    64.686686    668.69732   -1453.6822    4.1988137    37.896639    39.459637    30.158912    45099.264 
     112            0    10296.912    -85.67096   -73.401942    -250.7466    67.135663    669.10962   -1452.5884    4.3324293    37.896639    39.459637    30.158912    45099.264 
     113            0    10296.912   -84.084591   -71.971352   -251.75012    71.467705    670.29718   -1448.5476    5.5176714    37.896639    39.459637    30.158912    45099.264 
     114            0    10296.912   -84.105493   -72.768447   -252.38652    72.838487    669.66405   -1449.3684    5.7976225    37.896639    39.459637    30.158912    45099.264 
     115            0    10296.912   -84.209453   -73.210464   -251.65418    72.236281    668.01764   -1453.3338    4.9118554    37.896639    39.459637    30.158912    45099.264 
     116            0    10296.911   -84.111572   -72.594024   -251.15706    71.416374    667.54676   -1452.6292     4.467942    37.896639    39.459637    30.158912    45099.264 
     117            0    10296.911   -85.007864   -73.284932   -252.06081    70.322148    668.15909   -1449.1663    4.9003447    37.896639    39.459637    30.158912    45099.264 
     118            0    10296.911   -86.296581   -75.144828   -252.99627    69.251349    668.66627   -1448.8265    5.1449864    37.896639    39.459637    30.158912    45099.264 
     119            0    10296.911   -86.296581   -75.144828   -252.99627    69.251349    668.66627   -1448.8265    5.1449864    37.896639    39.459637    30.158912    45099.264 
Loop time of 1.34862 on 8 procs for 110 steps with 3712 atoms

99.5% CPU use with 8 MPI tasks x 1 OpenMP threads

Minimization stats:
  Stopping criterion = linesearch alpha is zero
  Energy initial, next-to-last, final = 
      10340.9687015241   10296.9108215215   10296.9108215215
  Force two-norm initial, final = 276.39184 0.97203956
  Force max component initial, final = 7.4360998 0.044488910
  Final line search alpha, max atom move = 1.0907459e-08 4.8526097e-10
  Iterations, force evaluations = 110 223

MPI task timing breakdown:
Section |  min time  |  avg time  |  max time  |%varavg| %total
---------------------------------------------------------------
Pair    | 0.72821    | 0.98908    | 1.2504     |  18.3 | 73.34
Bond    | 0.046124   | 0.048104   | 0.049573   |   0.5 |  3.57
Neigh   | 0          | 0          | 0          |   0.0 |  0.00
Comm    | 0.027655   | 0.28909    | 0.55009    |  33.9 | 21.44
Output  | 0.0039797  | 0.0052993  | 0.013248   |   4.1 |  0.39
Modify  | 0          | 0          | 0          |   0.0 |  0.00
Other   |            | 0.01703    |            |       |  1.26

Nlocal:        464.000 ave         464 max         464 min
Histogram: 8 0 0 0 0 0 0 0 0 0
Nghost:        7145.00 ave        7145 max        7145 min
Histogram: 8 0 0 0 0 0 0 0 0 0
Neighs:        195804.0 ave      248357 max      143238 min
Histogram: 1 1 1 1 0 0 1 1 1 1

Total # of neighbors = 1566430
Ave neighs/atom = 421.99084
Ave special neighs/atom = 13.034483
Neighbor list builds = 0
Dangerous builds = 0

# Obtain new stress tensor

variable tmp equal pe
variable e1 equal ${tmp}
variable e1 equal 10296.9108215215
variable tmp equal press
variable p1 equal ${tmp}
variable p1 equal -86.296581463666
variable tmp equal pxx
variable pxx1 equal ${tmp}
variable pxx1 equal -75.1448283111276
variable tmp equal pyy
variable pyy1 equal ${tmp}
variable pyy1 equal -252.996265454761
variable tmp equal pzz
variable pzz1 equal ${tmp}
variable pzz1 equal 69.2513493748902
variable tmp equal pxy
variable pxy1 equal ${tmp}
variable pxy1 equal 668.666272674381
variable tmp equal pxz
variable pxz1 equal ${tmp}
variable pxz1 equal -1448.82647630375
variable tmp equal pyz
variable pyz1 equal ${tmp}
variable pyz1 equal 5.14498640887492

# Compute elastic constant from pressure tensor

variable C1pos equal ${d1}
variable C1pos equal 0.788588763839105
variable C2pos equal ${d2}
variable C2pos equal 2.5784467736158
variable C3pos equal ${d3}
variable C3pos equal -0.664263238496245
variable C4pos equal ${d4}
variable C4pos equal 0.280942045910817
variable C5pos equal ${d5}
variable C5pos equal 14.5945044133125
variable C6pos equal ${d6}
variable C6pos equal -6.7823908993969

# Combine positive and negative

variable C1${dir} equal 0.5*(${C1neg}+${C1pos})
variable C15 equal 0.5*(${C1neg}+${C1pos})
variable C15 equal 0.5*(-0.80984021503752+${C1pos})
variable C15 equal 0.5*(-0.80984021503752+0.788588763839105)
variable C2${dir} equal 0.5*(${C2neg}+${C2pos})
variable C25 equal 0.5*(${C2neg}+${C2pos})
variable C25 equal 0.5*(-2.63048655927688+${C2pos})
variable C25 equal 0.5*(-2.63048655927688+2.5784467736158)
variable C3${dir} equal 0.5*(${C3neg}+${C3pos})
variable C35 equal 0.5*(${C3neg}+${C3pos})
variable C35 equal 0.5*(0.673436052722783+${C3pos})
variable C35 equal 0.5*(0.673436052722783+-0.664263238496245)
variable C4${dir} equal 0.5*(${C4neg}+${C4pos})
variable C45 equal 0.5*(${C4neg}+${C4pos})
variable C45 equal 0.5*(-0.318447163785958+${C4pos})
variable C45 equal 0.5*(-0.318447163785958+0.280942045910817)
variable C5${dir} equal 0.5*(${C5neg}+${C5pos})
variable C55 equal 0.5*(${C5neg}+${C5pos})
variable C55 equal 0.5*(14.6465456142512+${C5pos})
variable C55 equal 0.5*(14.6465456142512+14.5945044133125)
variable C6${dir} equal 0.5*(${C6neg}+${C6pos})
variable C65 equal 0.5*(${C6neg}+${C6pos})
variable C65 equal 0.5*(-6.75880238844338+${C6pos})
variable C65 equal 0.5*(-6.75880238844338+-6.7823908993969)

# Delete dir to make sure it is not reused

variable dir delete

# uxy Perturbation

variable dir equal 6
include displace.mod
# NOTE: This script should not need to be
# modified. See in.elastic for more info.
#
# Find which reference length to use

if "${dir} == 1" then    "variable len0 equal ${lx0}"
if "${dir} == 2" then    "variable len0 equal ${ly0}"
if "${dir} == 3" then    "variable len0 equal ${lz0}"
if "${dir} == 4" then    "variable len0 equal ${lz0}"
if "${dir} == 5" then    "variable len0 equal ${lz0}"
if "${dir} == 6" then    "variable len0 equal ${ly0}"
variable len0 equal ${ly0}
variable len0 equal 39.4596368713245

# Reset box and simulation parameters

clear
OMP_NUM_THREADS environment is not set. Defaulting to 1 thread. (src/lammps-master/src/comm.cpp:94)
  using 1 OpenMP thread(s) per MPI task
box tilt large
read_restart restart.equil
Reading restart file ...
  restart file = 30 Nov 2020, LAMMPS = 30 Nov 2020
  restoring atom style full from restart
  triclinic box = (-0.00043121516 0.0048660643 -9.7033041e-05) to (37.896208 39.464503 30.158815) with tilt (0.0020704893 0.0037010238 -1.2416220)
  2 by 2 by 2 MPI processor grid
  restoring pair style lj/cut from restart
  restoring bond style harmonic from restart
  restoring angle style hybrid from restart
  restoring dihedral style harmonic from restart
  restoring improper style fourier from restart
  3712 atoms
  4096 bonds
  7808 angles
  9856 dihedrals
  3072 impropers
Finding 1-2 1-3 1-4 neighbors ...
  special bond factors lj:    0        0        1       
  special bond factors coul:  0        0        0       
     4 = max # of 1-2 neighbors
     8 = max # of 1-3 neighbors
    21 = max # of 1-4 neighbors
    25 = max # of special neighbors
  special bonds CPU = 0.001 seconds
  read_restart CPU = 0.004 seconds
include potential.mod
pair_style      lj/cut 12.5
bond_style      harmonic
angle_style     hybrid cosine/periodic fourier
dihedral_style  harmonic
improper_style  fourier


special_bonds   lj 0.0 0.0 1.0
pair_modify     tail yes mix arithmetic
include data.pair
bond_coeff     1      154.048673        1.928536  # Zn3f2 N_R
bond_coeff     2      122.127512        2.014866  # Zn3f2 O_2
bond_coeff     3      153.811316        1.929528  # Zn3f2 N_3
bond_coeff     4      527.945261        1.044419  # H_ N_3
bond_coeff     5      357.440381        1.081418  # H_ C_R
bond_coeff     6      331.069389        1.109401  # H_ C_3
bond_coeff     7      529.459447        1.043423  # H_ N_R
bond_coeff     8      663.718927        1.345073  # C_R N_R
bond_coeff     9      462.655054        1.379256  # C_R C_R
bond_coeff    10      369.943935        1.486000  # C_R C_3
bond_coeff    11      714.557442        1.269010  # C_R O_2
bond_coeff    12      646.680887        1.311940  # C_R O_R
bond_coeff    13      349.795899        1.514000  # C_3 C_3
bond_coeff    14      529.724731        1.450075  # C_3 N_R
bond_coeff    15      528.634538        1.451071  # C_3 N_3
angle_coeff     1                      fourier      183.483089        0.343737        0.374972        0.281246 # N_R Zn3f2 N_R
angle_coeff     2                      fourier      155.087435        0.343737        0.374972        0.281246 # N_R Zn3f2 O_2
angle_coeff     3                      fourier      183.341639        0.343737        0.374972        0.281246 # N_R Zn3f2 N_3
angle_coeff     4                      fourier      154.973760        0.343737        0.374972        0.281246 # O_2 Zn3f2 N_3
angle_coeff     5              cosine/periodic      159.573934              -1               3 # H_ C_R N_R
angle_coeff     6              cosine/periodic      424.885146              -1               3 # N_R C_R N_R
angle_coeff     7              cosine/periodic      114.578032              -1               3 # H_ C_R C_R
angle_coeff     8              cosine/periodic      307.398705              -1               3 # C_R C_R N_R
angle_coeff     9              cosine/periodic      198.274298              -1               3 # C_R C_R C_3
angle_coeff    10              cosine/periodic      273.097456              -1               3 # C_3 C_R N_R
angle_coeff    11              cosine/periodic      393.120049              -1               3 # O_2 C_R O_R
angle_coeff    12              cosine/periodic      266.629989              -1               3 # O_2 C_R C_3
angle_coeff    13              cosine/periodic      255.317313              -1               3 # O_R C_R C_3
angle_coeff    14                      fourier      117.318683        0.343737        0.374972        0.281246 # H_ C_3 C_3
angle_coeff    15                      fourier      170.007371        0.343737        0.374972        0.281246 # H_ C_3 N_R
angle_coeff    16                      fourier      121.777217        0.343737        0.374972        0.281246 # H_ C_3 C_R
angle_coeff    17                      fourier      303.594562        0.343737        0.374972        0.281246 # C_3 C_3 N_R
angle_coeff    18                      fourier      220.229931        0.343737        0.374972        0.281246 # C_3 C_3 C_R
angle_coeff    19                      fourier      312.548166        0.343737        0.374972        0.281246 # N_R C_3 C_R
angle_coeff    20                      fourier       75.498766        0.343737        0.374972        0.281246 # H_ C_3 H_
angle_coeff    21                      fourier      169.780468        0.343737        0.374972        0.281246 # H_ C_3 N_3
angle_coeff    22                      fourier      303.297032        0.343737        0.374972        0.281246 # C_3 C_3 N_3
angle_coeff    23              cosine/periodic      398.603153              -1               3 # N_R C_R O_R
angle_coeff    24                      fourier       51.536168        0.317506        0.313225        0.272502 # Zn3f2 N_3 H_
angle_coeff    25                      fourier      108.360206        0.317506        0.313225        0.272502 # Zn3f2 N_3 C_3
angle_coeff    26                      fourier       97.017167        0.317506        0.313225        0.272502 # H_ N_3 H_
angle_coeff    27                      fourier      144.695053        0.317506        0.313225        0.272502 # H_ N_3 C_3
angle_coeff    28              cosine/periodic       87.429320              -1               3 # Zn3f2 N_R C_R
angle_coeff    29              cosine/periodic      240.001032              -1               3 # C_R N_R C_R
angle_coeff    30              cosine/periodic      108.417222              -1               3 # H_ N_R C_3
angle_coeff    31              cosine/periodic      125.071223              -1               3 # H_ N_R C_R
angle_coeff    32              cosine/periodic      213.564697              -1               3 # C_3 N_R C_R
angle_coeff    33              cosine/periodic       84.412329              -1               3 # Zn3f2 O_2 C_R
dihedral_coeff     1        1.497136              -1               2 # H_ C_R N_R Zn3f2
dihedral_coeff     2        0.083333               1               3 # C_R C_R C_3 C_3
dihedral_coeff     3        2.245703              -1               2 # O_R C_R O_2 Zn3f2
dihedral_coeff     4        0.066219               1               3 # H_ C_3 C_3 C_R
dihedral_coeff     5        0.416667              -1               2 # H_ C_3 N_R H_
dihedral_coeff     6        0.030516               1               3 # H_ C_3 N_3 Zn3f2
improper_coeff     1        2.000000        1.000000       -1.000000        0.000000               0 # H_ C_R N_R N_R
pair_coeff 1 1 0.124 2.461553
pair_coeff 1 2 0.07386474125047755 2.5163434999999996
pair_coeff 1 3 0.11410521460476729 2.946202
pair_coeff 1 4 0.11410521460476729 2.946202
pair_coeff 1 5 0.09249864863877742 2.861121
pair_coeff 1 6 0.09249864863877742 2.861121
pair_coeff 1 7 0.08625543461139129 2.7898495
pair_coeff 1 8 0.08625543461139129 2.7898495
pair_coeff 2 2 0.044 2.571134
pair_coeff 2 3 0.0679705818718657 3.0009924999999997
pair_coeff 2 4 0.0679705818718657 3.0009924999999997
pair_coeff 2 5 0.05509990925582364 2.9159115
pair_coeff 2 6 0.05509990925582364 2.9159115
pair_coeff 2 7 0.05138093031466051 2.84464
pair_coeff 2 8 0.05138093031466051 2.84464
pair_coeff 3 3 0.105 3.430851
pair_coeff 3 4 0.105 3.430851
pair_coeff 3 5 0.08511756575466665 3.34577
pair_coeff 3 6 0.08511756575466665 3.34577
pair_coeff 3 7 0.07937253933193772 3.2744985
pair_coeff 3 8 0.07937253933193772 3.2744985
pair_coeff 4 4 0.105 3.430851
pair_coeff 4 5 0.08511756575466665 3.34577
pair_coeff 4 6 0.08511756575466665 3.34577
pair_coeff 4 7 0.07937253933193772 3.2744985
pair_coeff 4 8 0.07937253933193772 3.2744985
pair_coeff 5 5 0.069 3.2606889999999997
pair_coeff 5 6 0.069 3.2606889999999997
pair_coeff 5 7 0.06434283176858166 3.1894175
pair_coeff 5 8 0.06434283176858166 3.1894175
pair_coeff 6 6 0.069 3.2606889999999997
pair_coeff 6 7 0.06434283176858166 3.1894175
pair_coeff 6 8 0.06434283176858166 3.1894175
pair_coeff 7 7 0.06 3.118146
pair_coeff 7 8 0.06 3.118146
pair_coeff 8 8 0.06 3.118146

# Setup neighbor style
neighbor 1.0 nsq
neigh_modify once no every 1 delay 0 check yes

# Setup minimization style
min_style	     cg
min_modify	     dmax ${dmax} line quadratic
min_modify	     dmax 0.001 line quadratic

# Setup output
thermo		1
thermo_style custom step temp pe press pxx pyy pzz pxy pxz pyz lx ly lz vol
thermo_modify norm no

# Negative deformation

variable delta equal -${up}*${len0}
variable delta equal -0.01*${len0}
variable delta equal -0.01*39.4596368713245
variable deltaxy equal -${up}*xy
variable deltaxy equal -0.01*xy
variable deltaxz equal -${up}*xz
variable deltaxz equal -0.01*xz
variable deltayz equal -${up}*yz
variable deltayz equal -0.01*yz
if "${dir} == 1" then    "change_box all x delta 0 ${delta} xy delta ${deltaxy} xz delta ${deltaxz} remap units box"
if "${dir} == 2" then    "change_box all y delta 0 ${delta} yz delta ${deltayz} remap units box"
if "${dir} == 3" then    "change_box all z delta 0 ${delta} remap units box"
if "${dir} == 4" then    "change_box all yz delta ${delta} remap units box"
if "${dir} == 5" then    "change_box all xz delta ${delta} remap units box"
if "${dir} == 6" then    "change_box all xy delta ${delta} remap units box"
change_box all xy delta ${delta} remap units box
change_box all xy delta -0.394596368713245 remap units box
Changing box ...
  triclinic box = (-0.00043121516 0.0048660643 -9.7033041e-05) to (37.896208 39.464503 30.158815) with tilt (-0.39252588 0.0037010238 -1.2416220)

# Relax atoms positions

minimize ${etol} ${ftol} ${maxiter} ${maxeval}
minimize 1e-10 ${ftol} ${maxiter} ${maxeval}
minimize 1e-10 1e-10 ${maxiter} ${maxeval}
minimize 1e-10 1e-10 100000 ${maxeval}
minimize 1e-10 1e-10 100000 10000000
Neighbor list info ...
  update every 1 steps, delay 0 steps, check yes
  max neighbors/atom: 2000, page size: 100000
  master list distance cutoff = 13.5
  ghost atom cutoff = 13.5
  1 neighbor lists, perpetual/occasional/extra = 1 0 0
  (1) pair lj/cut, perpetual
      attributes: half, newton on
      pair build: half/nsq/newton
      stencil: none
      bin: none
WARNING: Inconsistent image flags (src/lammps-master/src/domain.cpp:812)
Per MPI rank memory allocation (min/avg/max) = 18.81 | 19.00 | 19.19 Mbytes
Step Temp PotEng Press Pxx Pyy Pzz Pxy Pxz Pyz Lx Ly Lz Volume 
       9            0    10326.842   -38.899602   -130.81426   -2.2162784    16.331733    10534.537    302.53918    35.843179    37.896639    39.459637    30.158912    45099.264 
      10            0    10320.144     -34.0783   -116.45096   -2.4354198    16.651481    9337.5256    287.84485    32.754091    37.896639    39.459637    30.158912    45099.264 
      11            0    10315.613   -30.645473   -104.29747   -4.7682255    17.129278    8282.7247    268.41998    30.944727    37.896639    39.459637    30.158912    45099.264 
      12            0    10312.271   -28.502182   -93.119495   -10.307677    17.920626    7341.3575    246.77616    30.000294    37.896639    39.459637    30.158912    45099.264 
      13            0    10309.624   -27.361192   -82.114082   -19.193765    19.224271    6491.2214    222.11252    29.552352    37.896639    39.459637    30.158912    45099.264 
      14            0    10307.565   -26.977843   -72.143148   -30.019693    21.229313    5781.7885    191.26653    29.226524    37.896639    39.459637    30.158912    45099.264 
      15            0    10305.797   -27.260946   -63.099526   -42.675705    23.992392    5134.6909    147.97222    28.616404    37.896639    39.459637    30.158912    45099.264 
      16            0    10304.502   -27.798098   -56.581013   -53.716304    26.903024    4667.5461    102.56642    27.843813    37.896639    39.459637    30.158912    45099.264 
      17            0     10303.43   -28.564932    -51.33606    -63.77978    29.421044     4289.155    53.641507    26.899884    37.896639    39.459637    30.158912    45099.264 
      18            0    10302.589   -28.547327   -46.774618    -71.99489    33.127527    4012.1105     6.691196    26.249167    37.896639    39.459637    30.158912    45099.264 
      19            0    10302.034   -30.665385   -43.456374   -80.571061    32.031281    3703.9416   -48.786174    25.094551    37.896639    39.459637    30.158912    45099.264 
      20            0     10301.39    -31.24948   -39.944967   -88.264361    34.460886    3459.9573   -91.428216    24.496612    37.896639    39.459637    30.158912    45099.264 
      21            0    10301.099   -29.919491   -38.650816   -88.821661    37.714003     3468.027   -90.472172    24.654532    37.896639    39.459637    30.158912    45099.264 
      22            0    10300.606   -29.990502   -34.850306   -94.307444    39.186244    3291.2454   -130.29039    23.994411    37.896639    39.459637    30.158912    45099.264 
      23            0     10300.42   -31.359934   -34.727787   -98.404769    39.052754    3178.7578    -137.5589    24.151175    37.896639    39.459637    30.158912    45099.264 
      24            0    10299.998   -31.663889   -32.165481   -103.65711    40.830924    3025.6576   -167.56283    23.734445    37.896639    39.459637    30.158912    45099.264 
      25            0    10299.861   -30.619976   -30.006061   -103.82458    41.970716    3004.2348   -184.22595    23.300196    37.896639    39.459637    30.158912    45099.264 
      26            0    10299.531   -30.811643   -26.489306   -109.12039    43.174773    2826.1317     -217.492    23.090256    37.896639    39.459637    30.158912    45099.264 
      27            0    10299.331   -31.892418   -27.170163   -112.90185    44.394762    2782.9089   -225.51212    23.257001    37.896639    39.459637    30.158912    45099.264 
      28            0    10299.102   -32.627368   -25.750911   -117.67461    45.543414    2662.1343   -256.50784     22.90378    37.896639    39.459637    30.158912    45099.264 
      29            0    10298.847   -31.911685   -21.957009   -119.94203    46.163988     2517.063   -290.23613    22.274173    37.896639    39.459637    30.158912    45099.264 
      30            0    10298.645   -31.993455   -19.352085   -124.66166    48.033379    2377.7445   -312.07231    22.464811    37.896639    39.459637    30.158912    45099.264 
      31            0    10298.427    -33.16481   -19.173053   -128.96554    48.644164    2344.7086   -343.37803    22.448388    37.896639    39.459637    30.158912    45099.264 
      32            0    10298.262   -33.876772   -17.996891   -133.27502    49.641596    2244.6002   -381.33218    21.904706    37.896639    39.459637    30.158912    45099.264 
      33            0    10298.093   -33.354054    -16.04746    -134.7956    50.780899     2129.605   -391.99701    21.633198    37.896639    39.459637    30.158912    45099.264 
      34            0    10297.952   -33.635549   -14.172319   -138.76344     52.02911    2019.0855   -422.75886    21.914744    37.896639    39.459637    30.158912    45099.264 
      35            0    10297.771   -34.705888    -13.76893    -143.5124     53.16367     1998.741   -466.21569    21.650423    37.896639    39.459637    30.158912    45099.264 
      36            0    10297.656   -35.346101   -12.986487   -147.48129    54.429476    1913.4605   -501.83602    20.890873    37.896639    39.459637    30.158912    45099.264 
      37            0     10297.54   -35.008386   -11.748778     -148.373     55.09662    1818.1838    -509.9554    20.766478    37.896639    39.459637    30.158912    45099.264 
      38            0    10297.475   -35.213281   -10.526049   -151.66774    56.553947    1765.6044   -538.59926    21.253359    37.896639    39.459637    30.158912    45099.264 
      39            0    10297.333   -35.999687   -9.9594834   -156.14452    58.104947    1715.9148   -577.91253    20.829103    37.896639    39.459637    30.158912    45099.264 
      40            0    10297.303   -35.864393   -9.9859542   -155.81118    58.203951    1697.1234   -576.47048    20.205611    37.896639    39.459637    30.158912    45099.264 
      41            0    10297.279   -35.360548    -9.718801   -155.56932    59.206482    1684.6016    -572.9463      18.9231    37.896639    39.459637    30.158912    45099.264 
      42            0    10297.182   -34.805805   -9.6888471   -156.51469    61.786128    1656.4559   -557.53187    17.276465    37.896639    39.459637    30.158912    45099.264 
      43            0    10297.141   -34.723403   -8.9068207   -157.83121    62.567824    1691.0571   -569.06569    19.133602    37.896639    39.459637    30.158912    45099.264 
      44            0    10297.118   -35.328883   -9.5654833   -158.75307      62.3319    1713.5009   -566.73152    19.662676    37.896639    39.459637    30.158912    45099.264 
      45            0    10297.034   -35.797728   -10.259545   -159.50172    62.368079    1694.3059   -559.89029    18.777716    37.896639    39.459637    30.158912    45099.264 
      46            0    10297.014   -35.536663   -9.9609033   -159.62148    62.972396    1667.8247   -560.41922    17.958738    37.896639    39.459637    30.158912    45099.264 
      47            0     10297.01    -35.79797   -10.515647    -160.4264     63.54814    1650.2402   -553.34493    16.809562    37.896639    39.459637    30.158912    45099.264 
      48            0    10296.969   -35.553656   -9.3393873   -168.94799    71.626411     1615.308   -563.24769    15.673254    37.896639    39.459637    30.158912    45099.264 
      49            0     10296.89   -35.138741   -8.4649159   -173.75489    76.803579    1569.3581   -571.10073    15.191258    37.896639    39.459637    30.158912    45099.264 
      50            0    10296.874    -34.61168    -8.187666   -169.97066    74.323283     1563.927   -569.42611    16.146901    37.896639    39.459637    30.158912    45099.264 
      51            0     10296.87   -33.828337   -7.0402453   -165.26738    70.822615    1579.3995   -574.58144    18.282366    37.896639    39.459637    30.158912    45099.264 
      52            0    10296.858   -35.777057   -7.8948876   -156.46227    57.025985    1609.9913   -576.20299    20.841842    37.896639    39.459637    30.158912    45099.264 
      53            0    10296.813   -46.449095   -15.451289    -154.8778    30.981805    1611.8039    -583.1379     23.01719    37.896639    39.459637    30.158912    45099.264 
      54            0    10296.791   -52.441574   -24.690447   -176.75066     44.11639    1573.7427   -603.53325    17.178671    37.896639    39.459637    30.158912    45099.264 
      55            0    10296.773   -53.679997   -33.680371   -197.09323    69.733614    1521.1573    -610.2346    8.6394288    37.896639    39.459637    30.158912    45099.264 
      56            0    10296.746    -37.92151    -24.48134   -180.14464     90.86145    1496.5976   -596.27663     4.066567    37.896639    39.459637    30.158912    45099.264 
      57            0    10296.726   -22.093881   -2.7313332   -159.41577    95.865459    1489.1716   -584.31224    7.2717984    37.896639    39.459637    30.158912    45099.264 
      58            0    10296.694   -11.741625    31.822056   -154.45385    87.406919     1494.049   -580.04869    21.484185    37.896639    39.459637    30.158912    45099.264 
      59            0    10296.661   -18.585576    38.354693   -167.20463    73.093205    1509.7142   -592.64124    33.272688    37.896639    39.459637    30.158912    45099.264 
      60            0    10296.626   -39.678365   -1.9782057   -182.07032    65.013434    1497.5388   -585.19748    31.951776    37.896639    39.459637    30.158912    45099.264 
      61            0    10296.611   -44.927957   -24.882027   -182.07207    72.170225     1509.718   -585.47668    20.276613    37.896639    39.459637    30.158912    45099.264 
      62            0      10296.6   -44.060723   -33.272908   -182.44816      83.5389    1517.8076   -600.43094    6.6236795    37.896639    39.459637    30.158912    45099.264 
      63            0     10296.59   -40.230319   -19.245843   -189.24011    87.794995    1454.3082   -611.95149   0.98646454    37.896639    39.459637    30.158912    45099.264 
      64            0    10296.583   -41.085505   -11.259163   -191.78299    79.785634    1410.8126   -610.26279    5.3788435    37.896639    39.459637    30.158912    45099.264 
      65            0    10296.576   -47.255648    -14.81122   -186.83977    59.884044    1406.8122   -602.79846    18.172942    37.896639    39.459637    30.158912    45099.264 
      66            0     10296.57   -49.969332   -20.913555   -182.18519    53.190748    1405.0082   -596.31053    21.904991    37.896639    39.459637    30.158912    45099.264 
      67            0    10296.562    -44.93038   -22.991053   -183.02547    71.225384     1395.132   -603.61267    11.236761    37.896639    39.459637    30.158912    45099.264 
      68            0    10296.557   -40.743478   -19.678654   -189.15295    86.601166    1396.7921   -617.77798    5.7271566    37.896639    39.459637    30.158912    45099.264 
      69            0    10296.551   -39.311019   -15.559094   -197.56864    95.194675    1399.4787    -626.1155    6.1451835    37.896639    39.459637    30.158912    45099.264 
      70            0    10296.544   -42.794166   -14.214268    -199.5287    85.360469    1401.4419   -626.93944    13.816863    37.896639    39.459637    30.158912    45099.264 
      71            0    10296.537   -45.722697   -13.355603   -196.99855    73.186062    1383.5861   -628.76314    18.739701    37.896639    39.459637    30.158912    45099.264 
      72            0    10296.529   -45.493229   -14.545163   -194.42104    72.486517    1350.6954   -622.13846    14.208816    37.896639    39.459637    30.158912    45099.264 
      73            0    10296.522   -45.447383    -20.49456   -194.81666    78.969074     1349.913   -619.53959     7.733442    37.896639    39.459637    30.158912    45099.264 
      74            0    10296.513   -50.595248   -36.438296   -198.53509    83.187642    1367.5061   -613.29475    4.1926665    37.896639    39.459637    30.158912    45099.264 
      75            0    10296.509   -53.130442   -38.768926   -201.77661     81.15421    1376.3693   -610.35729    4.3815704    37.896639    39.459637    30.158912    45099.264 
      76            0    10296.504   -52.479853   -27.598502   -205.44007    75.599016     1392.674   -626.49443    6.3927911    37.896639    39.459637    30.158912    45099.264 
      77            0    10296.501   -50.292682    -22.17434   -206.40946     77.70575    1390.7267   -637.48564    6.9099389    37.896639    39.459637    30.158912    45099.264 
      78            0    10296.498   -49.007237   -24.308104   -206.33523    83.621628    1375.6018   -636.92603    6.8985063    37.896639    39.459637    30.158912    45099.264 
      79            0    10296.496   -50.837212   -31.451064   -206.66051    85.599932    1369.2211   -634.44937    7.2273286    37.896639    39.459637    30.158912    45099.264 
      80            0    10296.493   -53.228458   -34.403396   -208.05442    82.772444    1361.3993   -633.44583    7.7601991    37.896639    39.459637    30.158912    45099.264 
      81            0    10296.491   -52.758803   -27.427502   -209.00365    78.154741    1336.6419    -633.6375    6.5860263    37.896639    39.459637    30.158912    45099.264 
      82            0    10296.489   -51.734243   -24.336199   -208.72812    77.861585    1331.5829    -629.7592    4.7120957    37.896639    39.459637    30.158912    45099.264 
      83            0    10296.486   -51.844103   -30.786423   -208.95935    84.213467    1347.6061     -614.851    2.1957226    37.896639    39.459637    30.158912    45099.264 
      84            0    10296.483   -53.952873   -36.519986   -213.49991     88.16128    1353.3486   -617.90342    2.3553166    37.896639    39.459637    30.158912    45099.264 
      85            0     10296.48   -57.485013   -38.625609   -222.07686    88.247425    1353.9055   -632.26541    4.7637569    37.896639    39.459637    30.158912    45099.264 
      86            0    10296.476   -59.294888   -38.196892   -224.16949    84.481719    1349.2677   -627.70251    5.2314629    37.896639    39.459637    30.158912    45099.264 
      87            0    10296.473    -59.80599   -39.371392   -218.40348      78.3569    1347.6242   -610.78646    2.9071674    37.896639    39.459637    30.158912    45099.264 
      88            0    10296.469   -59.088777    -42.73724   -211.46575    76.936657     1347.215   -609.55892 -0.085861432    37.896639    39.459637    30.158912    45099.264 
      89            0    10296.466   -58.360517   -43.881971   -211.09085    79.891276    1338.2886   -609.92746   -2.1485316    37.896639    39.459637    30.158912    45099.264 
      90            0    10296.462   -58.395059   -38.782745   -223.77375    87.371317    1335.1367   -602.88993   -1.3904697    37.896639    39.459637    30.158912    45099.264 
      91            0     10296.46   -61.054033   -38.229189   -233.25369    88.320783    1344.3158   -601.61269   0.38458527    37.896639    39.459637    30.158912    45099.264 
      92            0    10296.457   -65.851572   -45.558254   -236.70426    84.707802    1355.6224   -610.96787     1.229024    37.896639    39.459637    30.158912    45099.264 
      93            0    10296.456    -67.38178   -51.879151   -233.85419    83.587997    1362.9797   -621.68822   0.69717788    37.896639    39.459637    30.158912    45099.264 
      94            0    10296.454   -65.645794   -53.223291   -228.87499    85.160902    1360.7068   -626.85872   -1.1941225    37.896639    39.459637    30.158912    45099.264 
      95            0    10296.452   -63.001467   -47.928281   -226.85221    85.776092    1348.4702   -629.57309   -3.5427665    37.896639    39.459637    30.158912    45099.264 
      96            0     10296.45   -62.364978   -43.490785   -227.00904    83.404891    1338.0794   -630.93859   -4.7899105    37.896639    39.459637    30.158912    45099.264 
      97            0    10296.447   -66.789392   -49.075857   -231.11333     79.82101    1327.0526   -617.95731   -4.4249403    37.896639    39.459637    30.158912    45099.264 
      98            0    10296.446   -69.876169   -56.217362   -236.94249    83.531346    1322.2619    -615.3279   -4.0317142    37.896639    39.459637    30.158912    45099.264 
      99            0    10296.444   -71.120091   -61.180374   -245.37779    93.197895    1321.7989   -627.60345   -3.2489622    37.896639    39.459637    30.158912    45099.264 
     100            0    10296.441    -71.11141    -60.56573   -247.12492    94.356421    1322.7304   -626.61338   -3.3126518    37.896639    39.459637    30.158912    45099.264 
     101            0    10296.439   -70.840546   -54.977807   -239.65393    82.110098    1333.0282   -617.39467   -4.4964605    37.896639    39.459637    30.158912    45099.264 
     102            0    10296.437   -71.145377   -53.569369   -236.53262    76.665859    1337.5473    -623.8934   -4.6914326    37.896639    39.459637    30.158912    45099.264 
     103            0    10296.436   -71.834674   -56.802165   -237.91627    79.214412    1330.5758   -630.39112   -5.9238112    37.896639    39.459637    30.158912    45099.264 
     104            0    10296.432   -72.803461   -62.674043   -245.39321     89.65687    1314.7285   -619.58338   -8.1304417    37.896639    39.459637    30.158912    45099.264 
     105            0    10296.431   -73.710366   -65.059579   -250.34402    94.272499      1308.89    -609.1112   -8.0756654    37.896639    39.459637    30.158912    45099.264 
     106            0    10296.428   -74.447417   -64.147237   -248.13003    88.935018    1317.6212   -611.92474   -6.5219424    37.896639    39.459637    30.158912    45099.264 
     107            0    10296.426   -75.351144   -62.887427   -245.40186    82.235856    1327.7576   -618.12674   -5.6172547    37.896639    39.459637    30.158912    45099.264 
     108            0    10296.425   -76.572599   -63.885079   -246.03536    80.202643    1333.5546   -615.91568   -7.1203381    37.896639    39.459637    30.158912    45099.264 
     109            0    10296.424   -77.082752   -66.439601   -248.00543     83.19678    1336.8366    -615.5092   -9.3583178    37.896639    39.459637    30.158912    45099.264 
     110            0    10296.424   -77.541925   -68.748898   -250.96798    87.091105    1341.1194   -618.50076   -10.536321    37.896639    39.459637    30.158912    45099.264 
     111            0    10296.423   -77.584905   -68.569083   -251.34561    87.159982    1335.8324    -616.0375   -9.2499665    37.896639    39.459637    30.158912    45099.264 
     112            0    10296.422   -77.824349   -67.964942   -250.53331     85.02521     1328.698   -612.52384   -8.1087053    37.896639    39.459637    30.158912    45099.264 
     113            0    10296.421   -78.941158   -67.724975    -251.1549    82.056399    1327.4688   -611.47027   -7.7734564    37.896639    39.459637    30.158912    45099.264 
     114            0     10296.42   -79.721265    -68.86114   -251.94964    81.646983    1326.7955    -609.8775   -8.5281819    37.896639    39.459637    30.158912    45099.264 
     115            0     10296.42   -78.757401   -70.392545    -251.9293    86.049645    1330.5777    -607.4715   -9.8627969    37.896639    39.459637    30.158912    45099.264 
     116            0     10296.42   -78.256894   -70.168559   -252.40155    87.799432    1335.1906   -607.18054   -9.9844986    37.896639    39.459637    30.158912    45099.264 
     117            0    10296.419   -79.663913   -69.929985   -253.82531    84.763555    1337.9893    -612.9346   -10.157894    37.896639    39.459637    30.158912    45099.264 
     118            0    10296.419   -79.663913   -69.929985   -253.82531    84.763555    1337.9893    -612.9346   -10.157894    37.896639    39.459637    30.158912    45099.264 
Loop time of 1.3894 on 8 procs for 109 steps with 3712 atoms

99.2% CPU use with 8 MPI tasks x 1 OpenMP threads

Minimization stats:
  Stopping criterion = linesearch alpha is zero
  Energy initial, next-to-last, final = 
      10326.8423939779   10296.4191397368   10296.4191397368
  Force two-norm initial, final = 226.86873 1.4157616
  Force max component initial, final = 6.5325608 0.054490247
  Final line search alpha, max atom move = 5.5796794e-09 3.0403811e-10
  Iterations, force evaluations = 109 228

MPI task timing breakdown:
Section |  min time  |  avg time  |  max time  |%varavg| %total
---------------------------------------------------------------
Pair    | 0.74172    | 1.0061     | 1.2656     |  18.1 | 72.41
Bond    | 0.046875   | 0.049591   | 0.053032   |   0.8 |  3.57
Neigh   | 0          | 0          | 0          |   0.0 |  0.00
Comm    | 0.047982   | 0.30764    | 0.57253    |  32.6 | 22.14
Output  | 0.0053566  | 0.0068416  | 0.014554   |   3.5 |  0.49
Modify  | 0          | 0          | 0          |   0.0 |  0.00
Other   |            | 0.01921    |            |       |  1.38

Nlocal:        464.000 ave         464 max         464 min
Histogram: 8 0 0 0 0 0 0 0 0 0
Nghost:        7145.00 ave        7145 max        7145 min
Histogram: 8 0 0 0 0 0 0 0 0 0
Neighs:        195624.0 ave      248135 max      143103 min
Histogram: 1 1 1 1 0 0 1 1 1 1

Total # of neighbors = 1564992
Ave neighs/atom = 421.60345
Ave special neighs/atom = 13.034483
Neighbor list builds = 0
Dangerous builds = 0

# Obtain new stress tensor

variable tmp equal pxx
variable pxx1 equal ${tmp}
variable pxx1 equal -69.9299846907257
variable tmp equal pyy
variable pyy1 equal ${tmp}
variable pyy1 equal -253.825309406018
variable tmp equal pzz
variable pzz1 equal ${tmp}
variable pzz1 equal 84.7635546210922
variable tmp equal pxy
variable pxy1 equal ${tmp}
variable pxy1 equal 1337.9892839673
variable tmp equal pxz
variable pxz1 equal ${tmp}
variable pxz1 equal -612.934600850547
variable tmp equal pyz
variable pyz1 equal ${tmp}
variable pyz1 equal -10.1578944924248

# Compute elastic constant from pressure tensor

variable C1neg equal ${d1}
variable C1neg equal -0.735749360855382
variable C2neg equal ${d2}
variable C2neg equal -2.58684706145191
variable C3neg equal ${d3}
variable C3neg equal 0.821440658153387
variable C4neg equal ${d4}
variable C4neg equal -0.435998486643237
variable C5neg equal ${d5}
variable C5neg equal -6.12482998528296
variable C6neg equal ${d6}
variable C6neg equal 13.5643063113224

# Reset box and simulation parameters

clear
OMP_NUM_THREADS environment is not set. Defaulting to 1 thread. (src/lammps-master/src/comm.cpp:94)
  using 1 OpenMP thread(s) per MPI task
box tilt large
read_restart restart.equil
Reading restart file ...
  restart file = 30 Nov 2020, LAMMPS = 30 Nov 2020
  restoring atom style full from restart
  triclinic box = (-0.00043121516 0.0048660643 -9.7033041e-05) to (37.896208 39.464503 30.158815) with tilt (0.0020704893 0.0037010238 -1.2416220)
  2 by 2 by 2 MPI processor grid
  restoring pair style lj/cut from restart
  restoring bond style harmonic from restart
  restoring angle style hybrid from restart
  restoring dihedral style harmonic from restart
  restoring improper style fourier from restart
  3712 atoms
  4096 bonds
  7808 angles
  9856 dihedrals
  3072 impropers
Finding 1-2 1-3 1-4 neighbors ...
  special bond factors lj:    0        0        1       
  special bond factors coul:  0        0        0       
     4 = max # of 1-2 neighbors
     8 = max # of 1-3 neighbors
    21 = max # of 1-4 neighbors
    25 = max # of special neighbors
  special bonds CPU = 0.001 seconds
  read_restart CPU = 0.008 seconds
include potential.mod
pair_style      lj/cut 12.5
bond_style      harmonic
angle_style     hybrid cosine/periodic fourier
dihedral_style  harmonic
improper_style  fourier


special_bonds   lj 0.0 0.0 1.0
pair_modify     tail yes mix arithmetic
include data.pair
bond_coeff     1      154.048673        1.928536  # Zn3f2 N_R
bond_coeff     2      122.127512        2.014866  # Zn3f2 O_2
bond_coeff     3      153.811316        1.929528  # Zn3f2 N_3
bond_coeff     4      527.945261        1.044419  # H_ N_3
bond_coeff     5      357.440381        1.081418  # H_ C_R
bond_coeff     6      331.069389        1.109401  # H_ C_3
bond_coeff     7      529.459447        1.043423  # H_ N_R
bond_coeff     8      663.718927        1.345073  # C_R N_R
bond_coeff     9      462.655054        1.379256  # C_R C_R
bond_coeff    10      369.943935        1.486000  # C_R C_3
bond_coeff    11      714.557442        1.269010  # C_R O_2
bond_coeff    12      646.680887        1.311940  # C_R O_R
bond_coeff    13      349.795899        1.514000  # C_3 C_3
bond_coeff    14      529.724731        1.450075  # C_3 N_R
bond_coeff    15      528.634538        1.451071  # C_3 N_3
angle_coeff     1                      fourier      183.483089        0.343737        0.374972        0.281246 # N_R Zn3f2 N_R
angle_coeff     2                      fourier      155.087435        0.343737        0.374972        0.281246 # N_R Zn3f2 O_2
angle_coeff     3                      fourier      183.341639        0.343737        0.374972        0.281246 # N_R Zn3f2 N_3
angle_coeff     4                      fourier      154.973760        0.343737        0.374972        0.281246 # O_2 Zn3f2 N_3
angle_coeff     5              cosine/periodic      159.573934              -1               3 # H_ C_R N_R
angle_coeff     6              cosine/periodic      424.885146              -1               3 # N_R C_R N_R
angle_coeff     7              cosine/periodic      114.578032              -1               3 # H_ C_R C_R
angle_coeff     8              cosine/periodic      307.398705              -1               3 # C_R C_R N_R
angle_coeff     9              cosine/periodic      198.274298              -1               3 # C_R C_R C_3
angle_coeff    10              cosine/periodic      273.097456              -1               3 # C_3 C_R N_R
angle_coeff    11              cosine/periodic      393.120049              -1               3 # O_2 C_R O_R
angle_coeff    12              cosine/periodic      266.629989              -1               3 # O_2 C_R C_3
angle_coeff    13              cosine/periodic      255.317313              -1               3 # O_R C_R C_3
angle_coeff    14                      fourier      117.318683        0.343737        0.374972        0.281246 # H_ C_3 C_3
angle_coeff    15                      fourier      170.007371        0.343737        0.374972        0.281246 # H_ C_3 N_R
angle_coeff    16                      fourier      121.777217        0.343737        0.374972        0.281246 # H_ C_3 C_R
angle_coeff    17                      fourier      303.594562        0.343737        0.374972        0.281246 # C_3 C_3 N_R
angle_coeff    18                      fourier      220.229931        0.343737        0.374972        0.281246 # C_3 C_3 C_R
angle_coeff    19                      fourier      312.548166        0.343737        0.374972        0.281246 # N_R C_3 C_R
angle_coeff    20                      fourier       75.498766        0.343737        0.374972        0.281246 # H_ C_3 H_
angle_coeff    21                      fourier      169.780468        0.343737        0.374972        0.281246 # H_ C_3 N_3
angle_coeff    22                      fourier      303.297032        0.343737        0.374972        0.281246 # C_3 C_3 N_3
angle_coeff    23              cosine/periodic      398.603153              -1               3 # N_R C_R O_R
angle_coeff    24                      fourier       51.536168        0.317506        0.313225        0.272502 # Zn3f2 N_3 H_
angle_coeff    25                      fourier      108.360206        0.317506        0.313225        0.272502 # Zn3f2 N_3 C_3
angle_coeff    26                      fourier       97.017167        0.317506        0.313225        0.272502 # H_ N_3 H_
angle_coeff    27                      fourier      144.695053        0.317506        0.313225        0.272502 # H_ N_3 C_3
angle_coeff    28              cosine/periodic       87.429320              -1               3 # Zn3f2 N_R C_R
angle_coeff    29              cosine/periodic      240.001032              -1               3 # C_R N_R C_R
angle_coeff    30              cosine/periodic      108.417222              -1               3 # H_ N_R C_3
angle_coeff    31              cosine/periodic      125.071223              -1               3 # H_ N_R C_R
angle_coeff    32              cosine/periodic      213.564697              -1               3 # C_3 N_R C_R
angle_coeff    33              cosine/periodic       84.412329              -1               3 # Zn3f2 O_2 C_R
dihedral_coeff     1        1.497136              -1               2 # H_ C_R N_R Zn3f2
dihedral_coeff     2        0.083333               1               3 # C_R C_R C_3 C_3
dihedral_coeff     3        2.245703              -1               2 # O_R C_R O_2 Zn3f2
dihedral_coeff     4        0.066219               1               3 # H_ C_3 C_3 C_R
dihedral_coeff     5        0.416667              -1               2 # H_ C_3 N_R H_
dihedral_coeff     6        0.030516               1               3 # H_ C_3 N_3 Zn3f2
improper_coeff     1        2.000000        1.000000       -1.000000        0.000000               0 # H_ C_R N_R N_R
pair_coeff 1 1 0.124 2.461553
pair_coeff 1 2 0.07386474125047755 2.5163434999999996
pair_coeff 1 3 0.11410521460476729 2.946202
pair_coeff 1 4 0.11410521460476729 2.946202
pair_coeff 1 5 0.09249864863877742 2.861121
pair_coeff 1 6 0.09249864863877742 2.861121
pair_coeff 1 7 0.08625543461139129 2.7898495
pair_coeff 1 8 0.08625543461139129 2.7898495
pair_coeff 2 2 0.044 2.571134
pair_coeff 2 3 0.0679705818718657 3.0009924999999997
pair_coeff 2 4 0.0679705818718657 3.0009924999999997
pair_coeff 2 5 0.05509990925582364 2.9159115
pair_coeff 2 6 0.05509990925582364 2.9159115
pair_coeff 2 7 0.05138093031466051 2.84464
pair_coeff 2 8 0.05138093031466051 2.84464
pair_coeff 3 3 0.105 3.430851
pair_coeff 3 4 0.105 3.430851
pair_coeff 3 5 0.08511756575466665 3.34577
pair_coeff 3 6 0.08511756575466665 3.34577
pair_coeff 3 7 0.07937253933193772 3.2744985
pair_coeff 3 8 0.07937253933193772 3.2744985
pair_coeff 4 4 0.105 3.430851
pair_coeff 4 5 0.08511756575466665 3.34577
pair_coeff 4 6 0.08511756575466665 3.34577
pair_coeff 4 7 0.07937253933193772 3.2744985
pair_coeff 4 8 0.07937253933193772 3.2744985
pair_coeff 5 5 0.069 3.2606889999999997
pair_coeff 5 6 0.069 3.2606889999999997
pair_coeff 5 7 0.06434283176858166 3.1894175
pair_coeff 5 8 0.06434283176858166 3.1894175
pair_coeff 6 6 0.069 3.2606889999999997
pair_coeff 6 7 0.06434283176858166 3.1894175
pair_coeff 6 8 0.06434283176858166 3.1894175
pair_coeff 7 7 0.06 3.118146
pair_coeff 7 8 0.06 3.118146
pair_coeff 8 8 0.06 3.118146

# Setup neighbor style
neighbor 1.0 nsq
neigh_modify once no every 1 delay 0 check yes

# Setup minimization style
min_style	     cg
min_modify	     dmax ${dmax} line quadratic
min_modify	     dmax 0.001 line quadratic

# Setup output
thermo		1
thermo_style custom step temp pe press pxx pyy pzz pxy pxz pyz lx ly lz vol
thermo_modify norm no

# Positive deformation

variable delta equal ${up}*${len0}
variable delta equal 0.01*${len0}
variable delta equal 0.01*39.4596368713245
variable deltaxy equal ${up}*xy
variable deltaxy equal 0.01*xy
variable deltaxz equal ${up}*xz
variable deltaxz equal 0.01*xz
variable deltayz equal ${up}*yz
variable deltayz equal 0.01*yz
if "${dir} == 1" then    "change_box all x delta 0 ${delta} xy delta ${deltaxy} xz delta ${deltaxz} remap units box"
if "${dir} == 2" then    "change_box all y delta 0 ${delta} yz delta ${deltayz} remap units box"
if "${dir} == 3" then    "change_box all z delta 0 ${delta} remap units box"
if "${dir} == 4" then    "change_box all yz delta ${delta} remap units box"
if "${dir} == 5" then    "change_box all xz delta ${delta} remap units box"
if "${dir} == 6" then    "change_box all xy delta ${delta} remap units box"
change_box all xy delta ${delta} remap units box
change_box all xy delta 0.394596368713245 remap units box
Changing box ...
  triclinic box = (-0.00043121516 0.0048660643 -9.7033041e-05) to (37.896208 39.464503 30.158815) with tilt (0.39666686 0.0037010238 -1.2416220)

# Relax atoms positions

minimize ${etol} ${ftol} ${maxiter} ${maxeval}
minimize 1e-10 ${ftol} ${maxiter} ${maxeval}
minimize 1e-10 1e-10 ${maxiter} ${maxeval}
minimize 1e-10 1e-10 100000 ${maxeval}
minimize 1e-10 1e-10 100000 10000000
Neighbor list info ...
  update every 1 steps, delay 0 steps, check yes
  max neighbors/atom: 2000, page size: 100000
  master list distance cutoff = 13.5
  ghost atom cutoff = 13.5
  1 neighbor lists, perpetual/occasional/extra = 1 0 0
  (1) pair lj/cut, perpetual
      attributes: half, newton on
      pair build: half/nsq/newton
      stencil: none
      bin: none
WARNING: Inconsistent image flags (src/lammps-master/src/domain.cpp:812)
Per MPI rank memory allocation (min/avg/max) = 18.81 | 19.00 | 19.19 Mbytes
Step Temp PotEng Press Pxx Pyy Pzz Pxy Pxz Pyz Lx Ly Lz Volume 
       9            0    10326.858   -39.399509   -131.57319    -3.589933    16.964597   -10535.795    -319.8345    35.385384    37.896639    39.459637    30.158912    45099.264 
      10            0    10320.166   -34.525347   -117.12939   -3.7003421    17.253696   -9341.0284   -304.13755     32.29049    37.896639    39.459637    30.158912    45099.264 
      11            0    10315.627   -31.019483   -104.85523   -5.8739683    17.670752   -8285.7243   -284.15843    30.492031    37.896639    39.459637    30.158912    45099.264 
      12            0    10312.278   -28.815272   -93.572223   -11.256595    18.383002   -7343.5351   -262.44963    29.566175    37.896639    39.459637    30.158912    45099.264 
      13            0    10309.628   -27.638295   -82.489563   -20.025877    19.600556   -6492.9676   -238.12182    29.155264    37.896639    39.459637    30.158912    45099.264 
      14            0    10307.564   -27.246462   -72.475995     -30.8048     21.54141   -5782.5399   -207.72163    28.875494    37.896639    39.459637    30.158912    45099.264 
      15            0    10305.793   -27.542004   -63.439945   -43.438397     24.25233   -5135.4937   -164.87859    28.316668    37.896639    39.459637    30.158912    45099.264 
      16            0    10304.493   -28.107949   -56.986663   -54.471489    27.134306    -4668.132   -119.91222    27.578125    37.896639    39.459637    30.158912    45099.264 
      17            0    10303.421   -28.896243   -51.799317   -64.508413    29.619001   -4289.4849     -71.4276    26.642624    37.896639    39.459637    30.158912    45099.264 
      18            0    10302.576   -28.903112   -47.293713   -72.740109    33.324487    -4011.459   -24.895479    26.036415    37.896639    39.459637    30.158912    45099.264 
      19            0    10302.019   -31.059374   -44.001175   -81.307133    32.130185   -3702.7938    30.474256    24.806467    37.896639    39.459637    30.158912    45099.264 
      20            0    10301.373   -31.664789   -40.514843   -89.000458    34.520934   -3458.2372    72.837537    24.218503    37.896639    39.459637    30.158912    45099.264 
      21            0     10301.08   -30.326335   -39.233009   -89.580078    37.834083   -3466.1827    71.664587    24.451897    37.896639    39.459637    30.158912    45099.264 
      22            0    10300.585   -30.412046   -35.436613    -95.09672    39.297193   -3289.0556    111.21071    23.814002    37.896639    39.459637    30.158912    45099.264 
      23            0    10300.402   -31.784801   -35.258059   -99.185265     39.08892   -3176.3382    118.64719    23.906524    37.896639    39.459637    30.158912    45099.264 
      24            0     10299.98   -32.091498   -32.671319     -104.463    40.859828   -3022.9548    148.46307    23.510463    37.896639    39.459637    30.158912    45099.264 
      25            0    10299.842   -31.047628   -30.547107   -104.66701    42.071229   -3001.4278    164.86146    23.143604    37.896639    39.459637    30.158912    45099.264 
      26            0    10299.514   -31.249175   -27.007505   -110.02561    43.285591   -2823.0632    198.01409    22.949847    37.896639    39.459637    30.158912    45099.264 
      27            0    10299.313   -32.333495   -27.632121   -113.80413    44.435768   -2779.6436    205.97045    23.084531    37.896639    39.459637    30.158912    45099.264 
      28            0    10299.085   -33.073606   -26.170916    -118.6151      45.5652   -2658.7574    236.86901    22.735988    37.896639    39.459637    30.158912    45099.264 
      29            0    10298.829   -32.376224   -22.406813   -120.97888    46.257025   -2513.9193    270.45767    22.169307    37.896639    39.459637    30.158912    45099.264 
      30            0    10298.624   -32.480299   -19.792741   -125.80578    48.157626    -2374.111    292.14337    22.390563    37.896639    39.459637    30.158912    45099.264 
      31            0    10298.405    -33.65154   -19.554481   -130.08279    48.682654   -2341.4724    323.21803    22.334413    37.896639    39.459637    30.158912    45099.264 
      32            0    10298.241   -34.371077   -18.324432   -134.45662    49.667822   -2241.6374    361.20409    21.798117    37.896639    39.459637    30.158912    45099.264 
      33            0    10298.073   -33.861684   -16.383794   -136.09332    50.892065   -2126.3528    371.91897    21.576995    37.896639    39.459637    30.158912    45099.264 
      34            0    10297.932   -34.149989   -14.466972   -140.16163    52.178638   -2015.3943    402.53401    21.864787    37.896639    39.459637    30.158912    45099.264 
      35            0    10297.754   -35.201927   -13.979391   -144.87003    53.243644   -1995.9526    445.56466    21.563407    37.896639    39.459637    30.158912    45099.264 
      36            0    10297.638   -35.853918   -13.137683   -148.94504     54.52097    -1911.154    481.36533    20.803592    37.896639    39.459637    30.158912    45099.264 
      37            0    10297.523   -35.528966   -11.882252   -149.97465    55.270004   -1814.6703    489.88948    20.705227    37.896639    39.459637    30.158912    45099.264 
      38            0    10297.458   -35.727571   -10.578631   -153.37356    56.769476   -1760.1218    518.96218    21.178254    37.896639    39.459637    30.158912    45099.264 
      39            0    10297.317   -36.513289   -9.9244175   -157.93636    58.320906   -1710.2384    558.31594    20.724467    37.896639    39.459637    30.158912    45099.264 
      40            0    10297.287   -36.388197   -9.9536644   -157.64342    58.432495   -1692.1276      557.076     20.11034    37.896639    39.459637    30.158912    45099.264 
      41            0    10297.264   -35.824777   -9.6092737   -157.34824    59.483177   -1680.7099     554.0476    18.786429    37.896639    39.459637    30.158912    45099.264 
      42            0    10297.167   -35.163056   -9.4621517   -158.18033    62.153314   -1653.6855    538.60873    17.071097    37.896639    39.459637    30.158912    45099.264 
      43            0    10297.125   -35.100722   -8.7185199   -159.51424    62.930597   -1686.9261    549.32758    18.953919    37.896639    39.459637    30.158912    45099.264 
      44            0    10297.103   -35.762527   -9.4639257   -160.45251    62.628858   -1709.3826    546.73336    19.458015    37.896639    39.459637    30.158912    45099.264 
      45            0    10297.017   -36.333043   -10.300289   -161.24793    62.549091   -1690.4809    540.40558    18.532783    37.896639    39.459637    30.158912    45099.264 
      46            0    10296.999   -36.046415   -9.9702014   -161.34936    63.180317   -1664.2419    540.88735    17.722131    37.896639    39.459637    30.158912    45099.264 
      47            0    10296.994   -36.233911   -10.395798   -162.17891    63.872974   -1646.8144    533.62694    16.519368    37.896639    39.459637    30.158912    45099.264 
      48            0    10296.948   -35.270004   -7.9810042   -170.24297    72.413959   -1612.1726    544.56295    15.462598    37.896639    39.459637    30.158912    45099.264 
      49            0    10296.869   -34.358473   -6.3713878   -174.54765     77.84362   -1566.0029    552.12373    15.126631    37.896639    39.459637    30.158912    45099.264 
      50            0    10296.857   -34.092498   -6.5882514   -170.96851    75.279266   -1561.1797    550.11604    16.110451    37.896639    39.459637    30.158912    45099.264 
      51            0    10296.853   -33.828736   -6.3786514   -166.40659    71.299035   -1576.0809    555.60442    18.247606    37.896639    39.459637    30.158912    45099.264 
      52            0     10296.84   -38.233476   -10.840706   -158.37958    54.519856    -1607.282    556.85364    20.742562    37.896639    39.459637    30.158912    45099.264 
      53            0    10296.795   -52.076102   -23.239804   -159.77239    26.783889   -1607.5943    563.57674    22.445251    37.896639    39.459637    30.158912    45099.264 
      54            0    10296.775   -55.037292   -27.450758   -178.97617    41.315047   -1572.2606     582.3742    16.866238    37.896639    39.459637    30.158912    45099.264 
      55            0     10296.76    -51.78113   -29.021817   -194.94321    68.621633     -1524.49     587.7898    8.8020505    37.896639    39.459637    30.158912    45099.264 
      56            0    10296.739    -34.71918   -17.512403   -177.40011    90.754968   -1503.5789    574.65092    4.7437433    37.896639    39.459637    30.158912    45099.264 
      57            0    10296.723   -19.400786    2.2687698   -157.97358    97.502447   -1496.2552    561.39345    8.3992131    37.896639    39.459637    30.158912    45099.264 
      58            0    10296.694     -10.4249    33.567772   -156.00816    91.165686   -1504.2496     558.1615    23.948908    37.896639    39.459637    30.158912    45099.264 
      59            0    10296.665   -18.331854    36.690865    -170.2815    78.595077   -1516.2294    568.36169    35.303509    37.896639    39.459637    30.158912    45099.264 
      60            0    10296.633   -39.971774   -2.4243574   -186.02479    68.533822   -1498.8256    560.31867    33.497831    37.896639    39.459637    30.158912    45099.264 
      61            0    10296.615   -46.932357   -30.101618   -184.83774    74.142291   -1519.2267    564.65714    18.406581    37.896639    39.459637    30.158912    45099.264 
      62            0    10296.603   -45.566105   -35.167803   -184.58296     83.05245   -1520.3363    581.76427    4.5259216    37.896639    39.459637    30.158912    45099.264 
      63            0    10296.587   -40.570281   -16.924793   -190.68739    85.901338   -1436.0775     593.2447   -2.6459056    37.896639    39.459637    30.158912    45099.264 
      64            0    10296.578   -42.438316   -10.106172   -192.45277    75.243994   -1393.9402    590.99334    3.7943781    37.896639    39.459637    30.158912    45099.264 
      65            0    10296.564   -51.794343   -19.274808   -187.35637    51.248149     -1389.48    580.05446    21.449178    37.896639    39.459637    30.158912    45099.264 
      66            0    10296.557   -52.095386   -24.637607   -185.04019    53.391637   -1385.4139    575.94926    20.641418    37.896639    39.459637    30.158912    45099.264 
      67            0    10296.548   -44.703953   -23.372186   -187.02619    76.286517   -1386.0064    588.28455    9.0863393    37.896639    39.459637    30.158912    45099.264 
      68            0    10296.542   -39.732462   -16.741815   -193.43787    90.982298   -1389.4819    600.93534    5.5043399    37.896639    39.459637    30.158912    45099.264 
      69            0    10296.537   -39.494693   -12.626154   -198.08785    92.229927   -1397.0767    604.56789    8.8600757    37.896639    39.459637    30.158912    45099.264 
      70            0    10296.532    -43.03212   -11.988553   -198.13024    81.022432   -1400.5344    608.84964    15.663217    37.896639    39.459637    30.158912    45099.264 
      71            0    10296.527    -45.55853   -13.392066   -195.72858    72.445055    -1381.969    605.89529    17.519857    37.896639    39.459637    30.158912    45099.264 
      72            0     10296.52    -45.00181   -18.226507    -194.0659    77.286979   -1363.5597    597.91312    9.9486649    37.896639    39.459637    30.158912    45099.264 
      73            0    10296.515   -46.176168   -25.113686    -194.9927    81.577886   -1371.4906    596.62618    6.2325567    37.896639    39.459637    30.158912    45099.264 
      74            0    10296.507    -50.12362   -35.449734   -198.45119    83.530059   -1385.2001    587.51728    4.1124606    37.896639    39.459637    30.158912    45099.264 
      75            0    10296.503   -51.770657   -30.411784   -201.87393    76.973744   -1400.6101    594.77741    5.7107079    37.896639    39.459637    30.158912    45099.264 
      76            0      10296.5   -50.932755   -21.655065   -204.53515    73.391946   -1410.3075    610.26706     7.355896    37.896639    39.459637    30.158912    45099.264 
      77            0    10296.495    -48.69695   -20.197638   -205.76978    79.876565   -1392.5709    618.83791     7.664954    37.896639    39.459637    30.158912    45099.264 
      78            0    10296.492    -48.80217   -26.319406   -206.36078    86.273675   -1379.6531    620.16712    7.4474217    37.896639    39.459637    30.158912    45099.264 
      79            0    10296.487   -51.975993   -34.605603   -208.54199    87.219613   -1368.5484    613.12544    7.8640275    37.896639    39.459637    30.158912    45099.264 
      80            0    10296.484   -52.546106   -29.079783   -209.87975    81.321217    -1342.634     614.4892    7.4216944    37.896639    39.459637    30.158912    45099.264 
      81            0     10296.48   -51.781469   -22.551914   -209.85573     77.06324   -1326.0678    612.97304    5.9140541    37.896639    39.459637    30.158912    45099.264 
      82            0    10296.479      -51.821   -27.009294   -209.19216    80.738449   -1332.5514    599.67443    3.3889337    37.896639    39.459637    30.158912    45099.264 
      83            0    10296.478     -53.1637   -34.631155   -211.52958    86.669639   -1345.6545    596.27539    2.0460194    37.896639    39.459637    30.158912    45099.264 
      84            0    10296.475   -55.760342   -36.710788   -220.08976    89.519522   -1350.7471    611.90488    3.9832047    37.896639    39.459637    30.158912    45099.264 
      85            0    10296.474   -57.290864    -35.91118    -223.4317    87.470291   -1347.1421    613.81665    4.8070074    37.896639    39.459637    30.158912    45099.264 
      86            0    10296.471   -58.103396   -35.181543   -219.39781    80.269159   -1348.6243     599.6674    4.0552103    37.896639    39.459637    30.158912    45099.264 
      87            0    10296.468   -57.989429   -38.897035   -211.32251    76.251255   -1347.7963    594.91413    1.5928035    37.896639    39.459637    30.158912    45099.264 
      88            0    10296.464   -57.112259   -41.406252   -208.40284    78.472312    -1340.549    595.54627  -0.90357254    37.896639    39.459637    30.158912    45099.264 
      89            0     10296.46   -56.294354   -37.073414   -217.48405    85.674406   -1338.0364    593.59888  -0.71476217    37.896639    39.459637    30.158912    45099.264 
      90            0    10296.456    -58.19302   -34.331122   -230.02861     89.78067    -1339.012    588.43598   0.44766265    37.896639    39.459637    30.158912    45099.264 
      91            0    10296.452   -64.427293   -41.675289   -237.20808    85.601494   -1356.4579    597.64347    1.7854055    37.896639    39.459637    30.158912    45099.264 
      92            0    10296.449   -66.911097     -48.4013   -235.30272    82.970729   -1366.1858    608.71536    1.8856041    37.896639    39.459637    30.158912    45099.264 
      93            0    10296.446   -65.642675   -52.042775   -229.50911    84.623862   -1362.9356     613.4029 -0.057210106    37.896639    39.459637    30.158912    45099.264 
      94            0    10296.444   -61.583205   -45.394926   -226.26438    86.909695   -1351.2802    617.41936   -3.2882147    37.896639    39.459637    30.158912    45099.264 
      95            0    10296.442   -60.742316    -41.02474   -225.70979     84.50758    -1337.821    614.68901     -4.94412    37.896639    39.459637    30.158912    45099.264 
      96            0     10296.44   -65.264207   -47.431402   -229.27679    80.915576   -1324.2249      597.834   -5.1107911    37.896639    39.459637    30.158912    45099.264 
      97            0    10296.438   -68.900263   -54.551502    -235.3604     83.21111   -1320.8311     595.7001   -4.2473096    37.896639    39.459637    30.158912    45099.264 
      98            0    10296.437   -70.430984   -59.943923   -245.58156    94.232532   -1319.6711    604.85476   -3.0865598    37.896639    39.459637    30.158912    45099.264 
      99            0    10296.435   -70.111323   -58.218494   -245.90776    93.792282   -1323.5948    599.37361   -4.1026403    37.896639    39.459637    30.158912    45099.264 
     100            0    10296.433   -69.641854   -51.831308   -240.08807    82.993816   -1336.0657    592.83485   -4.6102832    37.896639    39.459637    30.158912    45099.264 
     101            0    10296.432   -69.904609   -50.993861   -236.42175    77.701779    -1339.318    599.15881   -4.6697398    37.896639    39.459637    30.158912    45099.264 
     102            0    10296.431   -70.669312   -55.121718   -237.01993    80.133709   -1332.6148    604.10944   -5.8603742    37.896639    39.459637    30.158912    45099.264 
     103            0    10296.429   -71.723199   -61.690453   -244.81641    91.337261   -1316.3184    589.78932    -7.342429    37.896639    39.459637    30.158912    45099.264 
     104            0    10296.427   -72.100938   -64.275712   -247.90024    95.873137   -1311.6587    583.13084   -8.1892785    37.896639    39.459637    30.158912    45099.264 
     105            0    10296.425   -72.361129   -60.876791   -245.69961    89.493017   -1324.8946    591.26405   -6.4888893    37.896639    39.459637    30.158912    45099.264 
     106            0    10296.423   -73.593314   -58.556971    -244.8072    82.584233   -1331.9378    593.83726   -5.6696315    37.896639    39.459637    30.158912    45099.264 
     107            0    10296.421   -75.373602   -61.212283   -246.24488    81.336356   -1337.3028    594.10897   -8.0404007    37.896639    39.459637    30.158912    45099.264 
     108            0     10296.42   -76.735782   -65.639782   -249.64144    85.073879   -1343.1425    596.18631   -9.9877809    37.896639    39.459637    30.158912    45099.264 
     109            0    10296.419   -77.217607   -68.604088   -251.32509    88.276354   -1341.0678    597.34167    -10.51577    37.896639    39.459637    30.158912    45099.264 
     110            0    10296.418   -76.506434   -67.788933   -249.82704    88.096666   -1332.5771    595.67658   -9.2043327    37.896639    39.459637    30.158912    45099.264 
     111            0    10296.417   -76.794763   -65.752201    -249.5439    84.911806   -1326.8269    593.08638   -7.9723392    37.896639    39.459637    30.158912    45099.264 
     112            0    10296.417    -78.32032   -65.757174   -251.25751    82.053725    -1323.668    591.51608   -8.5138762    37.896639    39.459637    30.158912    45099.264 
     113            0    10296.416   -78.367893   -67.238786    -252.1707    84.305805   -1324.7914    591.21113   -9.1772189    37.896639    39.459637    30.158912    45099.264 
     114            0    10296.415   -77.752351   -69.176818   -253.26078    89.180546   -1328.5644     589.6122   -9.7190989    37.896639    39.459637    30.158912    45099.264 
     115            0    10296.415   -77.995795   -69.135249   -253.57567    88.723535   -1333.5145    592.25358   -10.320335    37.896639    39.459637    30.158912    45099.264 
     116            0    10296.414   -79.384775   -68.453185   -253.79197    84.090829   -1333.9029    597.81746   -10.818405    37.896639    39.459637    30.158912    45099.264 
     117            0    10296.414   -80.300079   -69.324356   -253.74838    82.172494   -1327.7907    594.74883   -10.342742    37.896639    39.459637    30.158912    45099.264 
     118            0    10296.414   -79.863539   -71.147028   -253.28248    84.838887   -1327.6662    593.89307   -10.312788    37.896639    39.459637    30.158912    45099.264 
     119            0    10296.413   -78.705028   -71.608778   -253.45884    88.952532   -1328.9445    598.31193   -10.787224    37.896639    39.459637    30.158912    45099.264 
     120            0    10296.412   -79.245133    -70.17773   -254.65101     87.09334   -1325.5486    595.57862   -11.509707    37.896639    39.459637    30.158912    45099.264 
     121            0    10296.411   -80.799231   -69.415421   -255.59679    82.614521   -1325.2194    592.07991   -12.093524    37.896639    39.459637    30.158912    45099.264 
     122            0    10296.411    -81.83259   -71.604522   -255.69398    81.800734    -1331.185     592.6293   -10.929206    37.896639    39.459637    30.158912    45099.264 
     123            0     10296.41    -82.27798   -74.629952    -256.3484    84.144416    -1337.552    594.39871   -9.7040092    37.896639    39.459637    30.158912    45099.264 
     124            0     10296.41     -81.7333   -73.387521   -258.62336    86.810978   -1335.7076    593.03748   -10.956423    37.896639    39.459637    30.158912    45099.264 
     125            0     10296.41   -81.431282   -72.143034   -259.49478    87.343968   -1334.3598    591.65321   -12.495313    37.896639    39.459637    30.158912    45099.264 
     126            0    10296.409    -81.85399   -74.288212   -256.16575    84.891995   -1337.0297    593.20687   -13.207882    37.896639    39.459637    30.158912    45099.264 
     127            0    10296.409    -81.85399   -74.288212   -256.16575    84.891995   -1337.0297    593.20687   -13.207882    37.896639    39.459637    30.158912    45099.264 
Loop time of 1.48478 on 8 procs for 118 steps with 3712 atoms

99.5% CPU use with 8 MPI tasks x 1 OpenMP threads

Minimization stats:
  Stopping criterion = linesearch alpha is zero
  Energy initial, next-to-last, final = 
      10326.8576644654   10296.4093590628   10296.4093590628
  Force two-norm initial, final = 226.89834 0.93892985
  Force max component initial, final = 6.5454556 0.046452519
  Final line search alpha, max atom move = 1.2146757e-08 5.6424745e-10
  Iterations, force evaluations = 118 247

MPI task timing breakdown:
Section |  min time  |  avg time  |  max time  |%varavg| %total
---------------------------------------------------------------
Pair    | 0.80046    | 1.0924     | 1.3721     |  18.7 | 73.57
Bond    | 0.05079    | 0.053445   | 0.054855   |   0.6 |  3.60
Neigh   | 0          | 0          | 0          |   0.0 |  0.00
Comm    | 0.030541   | 0.31082    | 0.60241    |  35.0 | 20.93
Output  | 0.0042827  | 0.005694   | 0.014248   |   4.3 |  0.38
Modify  | 0          | 0          | 0          |   0.0 |  0.00
Other   |            | 0.02244    |            |       |  1.51

Nlocal:        464.000 ave         464 max         464 min
Histogram: 8 0 0 0 0 0 0 0 0 0
Nghost:        7145.00 ave        7145 max        7145 min
Histogram: 8 0 0 0 0 0 0 0 0 0
Neighs:        195615.0 ave      248007 max      143211 min
Histogram: 1 1 1 1 0 0 1 1 1 1

Total # of neighbors = 1564922
Ave neighs/atom = 421.58459
Ave special neighs/atom = 13.034483
Neighbor list builds = 0
Dangerous builds = 0

# Obtain new stress tensor

variable tmp equal pe
variable e1 equal ${tmp}
variable e1 equal 10296.4093590628
variable tmp equal press
variable p1 equal ${tmp}
variable p1 equal -81.8539896173975
variable tmp equal pxx
variable pxx1 equal ${tmp}
variable pxx1 equal -74.2882123290749
variable tmp equal pyy
variable pyy1 equal ${tmp}
variable pyy1 equal -256.16575153547
variable tmp equal pzz
variable pzz1 equal ${tmp}
variable pzz1 equal 84.8919950123524
variable tmp equal pxy
variable pxy1 equal ${tmp}
variable pxy1 equal -1337.02970188874
variable tmp equal pxz
variable pxz1 equal ${tmp}
variable pxz1 equal 593.206870800485
variable tmp equal pyz
variable pyz1 equal ${tmp}
variable pyz1 equal -13.2078822004689

# Compute elastic constant from pressure tensor

variable C1pos equal ${d1}
variable C1pos equal 0.779909102400956
variable C2pos equal ${d2}
variable C2pos equal 2.61056159132859
variable C3pos equal ${d3}
variable C3pos equal -0.822742080417831
variable C4pos equal ${d4}
variable C4pos equal 0.466902487094993
variable C5pos equal ${d5}
variable C5pos equal -6.09639847622112
variable C6pos equal ${d6}
variable C6pos equal 13.5403235628639

# Combine positive and negative

variable C1${dir} equal 0.5*(${C1neg}+${C1pos})
variable C16 equal 0.5*(${C1neg}+${C1pos})
variable C16 equal 0.5*(-0.735749360855382+${C1pos})
variable C16 equal 0.5*(-0.735749360855382+0.779909102400956)
variable C2${dir} equal 0.5*(${C2neg}+${C2pos})
variable C26 equal 0.5*(${C2neg}+${C2pos})
variable C26 equal 0.5*(-2.58684706145191+${C2pos})
variable C26 equal 0.5*(-2.58684706145191+2.61056159132859)
variable C3${dir} equal 0.5*(${C3neg}+${C3pos})
variable C36 equal 0.5*(${C3neg}+${C3pos})
variable C36 equal 0.5*(0.821440658153387+${C3pos})
variable C36 equal 0.5*(0.821440658153387+-0.822742080417831)
variable C4${dir} equal 0.5*(${C4neg}+${C4pos})
variable C46 equal 0.5*(${C4neg}+${C4pos})
variable C46 equal 0.5*(-0.435998486643237+${C4pos})
variable C46 equal 0.5*(-0.435998486643237+0.466902487094993)
variable C5${dir} equal 0.5*(${C5neg}+${C5pos})
variable C56 equal 0.5*(${C5neg}+${C5pos})
variable C56 equal 0.5*(-6.12482998528296+${C5pos})
variable C56 equal 0.5*(-6.12482998528296+-6.09639847622112)
variable C6${dir} equal 0.5*(${C6neg}+${C6pos})
variable C66 equal 0.5*(${C6neg}+${C6pos})
variable C66 equal 0.5*(13.5643063113224+${C6pos})
variable C66 equal 0.5*(13.5643063113224+13.5403235628639)

# Delete dir to make sure it is not reused

variable dir delete

# Output final values

variable C11all equal ${C11}
variable C11all equal 40.987692297546
variable C22all equal ${C22}
variable C22all equal 18.5304380730234
variable C33all equal ${C33}
variable C33all equal 28.6739844645599

variable C12all equal 0.5*(${C12}+${C21})
variable C12all equal 0.5*(12.5796204350935+${C21})
variable C12all equal 0.5*(12.5796204350935+12.5259706841287)
variable C13all equal 0.5*(${C13}+${C31})
variable C13all equal 0.5*(8.06526075280015+${C31})
variable C13all equal 0.5*(8.06526075280015+8.16193803853256)
variable C23all equal 0.5*(${C23}+${C32})
variable C23all equal 0.5*(13.8062100361935+${C32})
variable C23all equal 0.5*(13.8062100361935+13.6845668212095)

variable C44all equal ${C44}
variable C44all equal 18.8642494778389
variable C55all equal ${C55}
variable C55all equal 14.6205250137819
variable C66all equal ${C66}
variable C66all equal 13.5523149370932

variable C14all equal 0.5*(${C14}+${C41})
variable C14all equal 0.5*(-3.82218445431008+${C41})
variable C14all equal 0.5*(-3.82218445431008+-4.17209002809246)
variable C15all equal 0.5*(${C15}+${C51})
variable C15all equal 0.5*(-0.0106257255992075+${C51})
variable C15all equal 0.5*(-0.0106257255992075+-0.00982284835207836)
variable C16all equal 0.5*(${C16}+${C61})
variable C16all equal 0.5*(0.022079870772787+${C61})
variable C16all equal 0.5*(0.022079870772787+-0.00547976098993852)

variable C24all equal 0.5*(${C24}+${C42})
variable C24all equal 0.5*(-0.0861508110196549+${C42})
variable C24all equal 0.5*(-0.0861508110196549+-0.329357295319533)
variable C25all equal 0.5*(${C25}+${C52})
variable C25all equal 0.5*(-0.02601989283054+${C52})
variable C25all equal 0.5*(-0.02601989283054+-0.00212014955662405)
variable C26all equal 0.5*(${C26}+${C62})
variable C26all equal 0.5*(0.0118572649383399+${C62})
variable C26all equal 0.5*(0.0118572649383399+-0.00144991135528325)

variable C34all equal 0.5*(${C34}+${C43})
variable C34all equal 0.5*(-10.2156725168853+${C43})
variable C34all equal 0.5*(-10.2156725168853+-10.0738134923849)
variable C35all equal 0.5*(${C35}+${C53})
variable C35all equal 0.5*(0.00458640711326896+${C53})
variable C35all equal 0.5*(0.00458640711326896+-0.00392048939411473)
variable C36all equal 0.5*(${C36}+${C63})
variable C36all equal 0.5*(-0.000650711132222037+${C63})
variable C36all equal 0.5*(-0.000650711132222037+-0.0061888074692239)

variable C45all equal 0.5*(${C45}+${C54})
variable C45all equal 0.5*(-0.0187525589375705+${C54})
variable C45all equal 0.5*(-0.0187525589375705+-0.0016262866481669)
variable C46all equal 0.5*(${C46}+${C64})
variable C46all equal 0.5*(0.015452000225878+${C64})
variable C46all equal 0.5*(0.015452000225878+0.0026307470771947)
variable C56all equal 0.5*(${C56}+${C65})
variable C56all equal 0.5*(-6.11061423075204+${C65})
variable C56all equal 0.5*(-6.11061423075204+-6.77059664392014)

# Average moduli for cubic crystals

variable C11cubic equal (${C11all}+${C22all}+${C33all})/3.0
variable C11cubic equal (40.987692297546+${C22all}+${C33all})/3.0
variable C11cubic equal (40.987692297546+18.5304380730234+${C33all})/3.0
variable C11cubic equal (40.987692297546+18.5304380730234+28.6739844645599)/3.0
variable C12cubic equal (${C12all}+${C13all}+${C23all})/3.0
variable C12cubic equal (12.5527955596111+${C13all}+${C23all})/3.0
variable C12cubic equal (12.5527955596111+8.11359939566636+${C23all})/3.0
variable C12cubic equal (12.5527955596111+8.11359939566636+13.7453884287015)/3.0
variable C44cubic equal (${C44all}+${C55all}+${C66all})/3.0
variable C44cubic equal (18.8642494778389+${C55all}+${C66all})/3.0
variable C44cubic equal (18.8642494778389+14.6205250137819+${C66all})/3.0
variable C44cubic equal (18.8642494778389+14.6205250137819+13.5523149370932)/3.0

variable bulkmodulus equal (${C11cubic}+2*${C12cubic})/3.0
variable bulkmodulus equal (29.3973716117098+2*${C12cubic})/3.0
variable bulkmodulus equal (29.3973716117098+2*11.4705944613263)/3.0
variable shearmodulus1 equal ${C44cubic}
variable shearmodulus1 equal 15.6790298095713
variable shearmodulus2 equal (${C11cubic}-${C12cubic})/2.0
variable shearmodulus2 equal (29.3973716117098-${C12cubic})/2.0
variable shearmodulus2 equal (29.3973716117098-11.4705944613263)/2.0
variable poissonratio equal 1.0/(1.0+${C11cubic}/${C12cubic})
variable poissonratio equal 1.0/(1.0+29.3973716117098/${C12cubic})
variable poissonratio equal 1.0/(1.0+29.3973716117098/11.4705944613263)

# For Stillinger-Weber silicon, the analytical results
# are known to be (E. R. Cowley, 1988):
#               C11 = 151.4 GPa
#               C12 = 76.4 GPa
#               C44 = 56.4 GPa

print "========================================="
=========================================
print "Components of the Elastic Constant Tensor"
Components of the Elastic Constant Tensor
print "========================================="
=========================================

print "Elastic Constant C11all = ${C11all} ${cunits}"
Elastic Constant C11all = 40.987692297546 GPa
print "Elastic Constant C22all = ${C22all} ${cunits}"
Elastic Constant C22all = 18.5304380730234 GPa
print "Elastic Constant C33all = ${C33all} ${cunits}"
Elastic Constant C33all = 28.6739844645599 GPa

print "Elastic Constant C12all = ${C12all} ${cunits}"
Elastic Constant C12all = 12.5527955596111 GPa
print "Elastic Constant C13all = ${C13all} ${cunits}"
Elastic Constant C13all = 8.11359939566636 GPa
print "Elastic Constant C23all = ${C23all} ${cunits}"
Elastic Constant C23all = 13.7453884287015 GPa

print "Elastic Constant C44all = ${C44all} ${cunits}"
Elastic Constant C44all = 18.8642494778389 GPa
print "Elastic Constant C55all = ${C55all} ${cunits}"
Elastic Constant C55all = 14.6205250137819 GPa
print "Elastic Constant C66all = ${C66all} ${cunits}"
Elastic Constant C66all = 13.5523149370932 GPa

print "Elastic Constant C14all = ${C14all} ${cunits}"
Elastic Constant C14all = -3.99713724120127 GPa
print "Elastic Constant C15all = ${C15all} ${cunits}"
Elastic Constant C15all = -0.0102242869756429 GPa
print "Elastic Constant C16all = ${C16all} ${cunits}"
Elastic Constant C16all = 0.00830005489142424 GPa

print "Elastic Constant C24all = ${C24all} ${cunits}"
Elastic Constant C24all = -0.207754053169594 GPa
print "Elastic Constant C25all = ${C25all} ${cunits}"
Elastic Constant C25all = -0.014070021193582 GPa
print "Elastic Constant C26all = ${C26all} ${cunits}"
Elastic Constant C26all = 0.00520367679152832 GPa

print "Elastic Constant C34all = ${C34all} ${cunits}"
Elastic Constant C34all = -10.1447430046351 GPa
print "Elastic Constant C35all = ${C35all} ${cunits}"
Elastic Constant C35all = 0.000332958859577115 GPa
print "Elastic Constant C36all = ${C36all} ${cunits}"
Elastic Constant C36all = -0.00341975930072297 GPa

print "Elastic Constant C45all = ${C45all} ${cunits}"
Elastic Constant C45all = -0.0101894227928687 GPa
print "Elastic Constant C46all = ${C46all} ${cunits}"
Elastic Constant C46all = 0.00904137365153635 GPa
print "Elastic Constant C56all = ${C56all} ${cunits}"
Elastic Constant C56all = -6.44060543733609 GPa

print "========================================="
=========================================
print "Average properties for a cubic crystal"
Average properties for a cubic crystal
print "========================================="
=========================================

print "Bulk Modulus = ${bulkmodulus} ${cunits}"
Bulk Modulus = 17.4461868447875 GPa
print "Shear Modulus 1 = ${shearmodulus1} ${cunits}"
Shear Modulus 1 = 15.6790298095713 GPa
print "Shear Modulus 2 = ${shearmodulus2} ${cunits}"
Shear Modulus 2 = 8.96338857519175 GPa
print "Poisson Ratio = ${poissonratio}"
Poisson Ratio = 0.280674463731005
Total wall time: 0:00:22
